Cu Ni Cu
 1.0000000000000000
    15.1777496999999979    0.0000000000000000    0.0000000000000000
     7.5888748199999974   13.1443192200000070    0.0000000000000000
     0.0000000000000000    0.0000000000000000   21.1962931800000014
 Cu  Ni  Cu 
 121   1  22
Cartesian
  6.3241311954226189 10.9535627897315475  7.4315768280934265
  3.7944374228413675  6.5721961225120129  7.4316970114051433
  1.2644927542716837  2.1909202442684643  7.4321396198069261
 11.3833123653437980 10.9525016470190479  7.4336718511610496
  8.8544442746564691  6.5721663499829006  7.4341384201726974
  6.3243823168969744  2.1909202444147571  7.4321396200066783
 16.4424935354243402 10.9535627897598999  7.4315768280738501
 13.9121802710517386  6.5721663499730063  7.4341384201059766
 11.3833123856312213  2.1910479788614756  7.4320316087196741
  8.8538628994050317 10.9532989842307078  7.4321489144003534
  6.3244094799172892  6.5721565418590808  7.4321489379923289
  3.7944375355503110  2.1907189933043307  7.4318833505199002
 13.9127618314274315 10.9532989842671675  7.4321489143524353
 11.3833122728368146  6.5721587714607850  7.4349736139595795
  8.8538590581941214  2.1910207112969475  7.4321489499929907
 18.9721872154216982 10.9535984729510538  7.4315433577324335
 16.4422150657766331  6.5721565418586803  7.4321489379695018
 13.9127657130365385  2.1910207111817868  7.4321489499258790
  2.5296394381091840 -0.0003784599967992  7.4321396218782363
  7.5891597755539104  8.7627141453815600  7.4320315967945296
  5.0595841298323068  4.3816152548649772  7.4321396026507784
  7.5889073122496944 -0.0000195278547284  7.4316970255053745
 12.6477528528194370  8.7622193090864222  7.4341384199286180
 10.1188848648522818  4.3820906487259625  7.4341384151705752
 12.6481283275986964  0.0000765112702210  7.4315768656754093
 17.7073093977570259  8.7628369579199159  7.4315768516207692
 15.1767998467660714  4.3819873110261636  7.4336718691318202
 -0.0000322317956887 -0.0000195278884353  7.4316970254311965
  5.0593151831098426  8.7628369579159653  7.4315768516246639
  2.5292907710599195  4.3816152548622069  7.4321396026163926
  5.0592356423009699 -0.0003784600195955  7.4321396219195419
 10.1188717280257645  8.7622193091776737  7.4341384200586909
  7.5898247541250647  4.3819873110277099  7.4336718692520867
 10.1184964528668466  0.0000765112965650  7.4315768656927093
 15.1774648053161663  8.7627141453639759  7.4320315967545021
 12.6477397360193216  4.3820906487414861  7.4341384151630558
  8.8541632381443325  9.4923894787420871  9.5504306214655372
  6.3256472538484534  5.1122423686537370  9.5509528208450067
  3.7944375098256891  0.7296376543971204  9.5500634205642996
 13.9124612773464769  9.4923894787442471  9.5504306214537955
 11.3833122775489564  5.1124498752161847  9.5529796256008677
  8.8537699132679357  0.7305703249011826  9.5497780904770018
 18.9721871077241246  9.4930360372329972  9.5495563635281489
 16.4409773013649989  5.1122423687055862  9.5509528208462982
 13.9128548064364885  0.7305703247916282  9.5497780903865852
  6.3242027201712760  9.4930377903690335  9.5495599130765783
  3.7944374276263391  5.1119204185205751  9.5500743697981356
  1.2646035441588164  0.7301186841164882  9.5500743620935893
 11.3833122577784884  9.4907395588291639  9.5533712551254553
  8.8557478344590912  5.1128687032882194  9.5533712831322308
  6.3242714755227754  0.7301186843813335  9.5500743622613626
 16.4424217952918426  9.4930377903768335  9.5495599130645168
 13.9108767205759705  5.1128687034151374  9.5533712832344531
 11.3833123598661388  0.7304014362259345  9.5495599340840460
  7.5891202318896003 11.6836017742407154  9.5497780968693515
  5.0595777656310474  7.3023049195978196  9.5497780785330360
  2.5291039037085623  2.9212600664648183  9.5500634354227945
 12.6478201536656236 11.6821845142057636  9.5509528193413349
 10.1191673270976352  7.3020135491880671  9.5529796054998961
  7.5901551656293407  2.9220501061897126  9.5509528281183993
 17.7073029595733153 11.6838801031088142  9.5495563903828664
 15.1768800879818464  7.3023514598259061  9.5504306302695721
 12.6477311262797159  2.9217360561764862  9.5504306560819447
 10.1188044141601292 11.6821845141714711  9.5509528192337676
  7.5897444399068199  7.3023514598037220  9.5504306302810047
  5.0597710380401839  2.9212600664930797  9.5500634354536977
 15.1775043359991315 11.6836017742658420  9.5497780968927621
 12.6474572007592876  7.3020135492141147  9.5529796054305027
 10.1188935153718411  2.9217360561580796  9.5504306560070606
 20.2370713083195781 11.6838801030694679  9.5495563903873038
 17.7070467622653958  7.3023049196038636  9.5497780785281545
 15.1764694760085419  2.9220501061329776  9.5509528280592679
  8.8541929259749335 12.4124181750055609 11.6475938262994614
  6.3254358909852364  8.0324659343464706 11.6471650133432725
  3.7944374289663427  3.6516532865126119 11.6470949648679429
 13.9124315727602141 12.4124181749297371 11.6475938263036518
 11.3833122604682284  8.0312110062810582 11.6431996333667502
  8.8577611258081212  3.6539412512313727 11.6493216091448630
 18.9721870993469928 12.4144142938166571 11.6468434825283449
 16.4411886300079644  8.0324659343633265 11.6471650133423523
 13.9088634321502376  3.6539412512728928 11.6493216091248204
 11.3833122493848489 12.4112927223586773 11.6478446827958457
  8.8563191246027415  8.0311197160038592 11.6465182173284614
  6.3264753059273584  3.6525925544059965 11.6478447031257168
 16.4423076727947297 12.4142258521275330 11.6468606273844149
 13.9103053963765895  8.0311197159451773 11.6465182172590236
 11.3833122790509904  3.6542383998873920 11.6465182470032254
 21.5020665259032135 12.4142258521457958 11.6468606273901312
 18.9721871104978028  8.0323453518787620 11.6468606192428474
 16.4401492519775907  3.6525925544543019 11.6478447031852941
 10.1188373485440835 10.2184601376391750 11.6493215742315162
  7.5932862108420878  5.8440764373720171 11.6493215951262936
  5.0596429563818512  1.4602526511986182 11.6470949826735115
 15.1769128653760070 10.2222561687798876 11.6471650044329404
 12.6468878836001739  5.8426334173003172 11.6431996467970880
 10.1190365375562674  1.4617557108050716 11.6471650594657667
 20.2372900124015729 10.2231913694351757 11.6468434657692601
 17.7056835714876044  5.8423118159302021 11.6475938320529728
 15.1765642797397824  1.4617478327226594 11.6475938637915473
  7.5897116423267876 10.2222561687912297 11.6471650044342692
  5.0609409621133317  5.8423118159034413 11.6475938320432562
  2.5292319378574981  1.4602526511501215 11.6470949826617360
 12.6477871591903668 10.2184601375535049 11.6493215742955716
 10.1197366500833930  5.8426334174009362 11.6431996467795198
  7.5900603144447434  1.4617478328312641 11.6475938638355760
 17.7070841952895464 10.2231913694353320 11.6468434657650164
 15.1733383227304390  5.8440764374027001 11.6493215951491447
 12.6475880566196572  1.4617557107763006 11.6471650594546663
  6.3256561334627470 10.9525629750033708 13.7641704749977638
  3.7944374125922322  6.5719711293627228 13.7639863763014425
  1.2633150323901121  2.1918653222156821 13.7643311245365325
 11.3833122523486399 10.9468433230105848 13.7651835900310306
  8.8750130477099578  6.5725274753098999 13.7637654429818213
  6.3255598173272904  2.1918653222322648 13.7643311245112798
 16.4409683711798635 10.9525629749774573 13.7641704749954066
 13.8916114774907378  6.5725274755067966 13.7637654430354424
 11.3833122748324342  2.1975731342370719 13.7641034942393077
  8.8577390443308115 10.9464943743380090 13.7646408915093623
  6.3322413005063556  6.5722031346623986 13.7646409017419611
  3.7944374248537796  2.1907198401516523 13.7645720184645111
 13.9088854602947762 10.9464943741658214 13.7646408915271010
 11.3833122627293726  6.5721595832404702 13.6887978251397566
  8.8578145058022102  2.1977812222904642 13.7646409320382563
 18.9721871023277231 10.9535993102663198 13.7644945432291159
 16.4343832246671440  6.5722031347210113 13.7646409017717346
 13.9088100439068931  2.1977812221426141 13.7646409320929202
  2.5298682463482831 -0.0018696055817428 13.7643310979006692
  7.5948099583971791  8.7594528025507099 13.7641034551317460
  5.0609906319093501  4.3821637927716131 13.7643311039173994
  7.5887116484859192  0.0000941832440629 13.7639863808392100
 12.6377804879289162  8.7442268917856758 13.7637654349594634
 10.1294812489215644  4.3997243755525259 13.7637654518705030
 12.6480241495306363  0.0018983799597157 13.7641704893197101
 17.7056802481032101  8.7620173619102300 13.7641704758128931
 15.1718988363398459  4.3848177048784560 13.7651836113161004
  0.0001632043623694  0.0000941832626882 13.7639863808628657
  5.0609442668896154  8.7620173619147881 13.7641704758080667
  2.5278842045580969  4.3821637927800072 13.7643311039327063
  5.0590066065185031 -0.0018696056013267 13.7643310978930788
 10.1288440270322404  8.7442268921510351 13.7637654348470644
  7.5947257000921429  4.3848177048517600 13.7651836113043267
 10.1186004033166821  0.0018983799747388 13.7641704893062755
 15.1718145566228984  8.7594528025551153 13.7641034551290300
 12.6371432875021803  4.3997243751576560 13.7637654518178909
