# LAMMPS data file for si_slab_111

8 atoms
1 atom types

0.0000000000 5.4300000000 xlo xhi
0.0000000000 5.4300000000 ylo yhi
0.0000000000 15.0000000000 zlo zhi

Masses

1 28.090000 # Si

Atoms # atomic

1 1 0.0000000000 0.0000000000 1.5000000000
2 1 2.7150000000 0.0000000000 1.5000000000
3 1 0.0000000000 2.7150000000 1.5000000000
4 1 2.7150000000 2.7150000000 1.5000000000
5 1 1.3575000000 1.3575000000 3.0000000000
6 1 4.0725000000 1.3575000000 3.0000000000
7 1 1.3575000000 4.0725000000 3.0000000000
8 1 4.0725000000 4.0725000000 3.0000000000
