Cu Ni
 1.0000000000000000
    15.1777496999999997    0.0000000000000000    0.0000000000000000
     7.5888748200000000   13.1443192199999999    0.0000000000000000
     0.0000000000000000    0.0000000000000000   21.1962931800000014
 Cu  Ni 
 143   1
Cartesian
  6.3241312037383217 10.9535627841385317  7.4315768284786756
  3.7944374246527901  6.5721961164966674  7.4316970115785823
  1.2644927611414296  2.1909202378778767  7.4321396152829111
 11.3833123712536519 10.9525016432866558  7.4336718531668131
  8.8544442739769593  6.5721663455651287  7.4341384219514657
  6.3243823210816315  2.1909202396371810  7.4321396178137267
 16.4424935436179851 10.9535627856175637  7.4315768325784308
 13.9121802728678894  6.5721663453193182  7.4341384238127555
 11.3833123922545330  2.1910479739239457  7.4320316084875850
  8.8538629075277235 10.9532989802393494  7.4321489186333789
  6.3244094814050937  6.5721565373078494  7.4321489421303442
  3.7944375421128793  2.1907189884655645  7.4318833502438846
 13.9127618398189039 10.9532989788376423  7.4321489144029300
 11.3833122745957134  6.5721587655133282  7.4349736128726169
  8.8538590647875974  2.1910207048416162  7.4321489454867127
 18.9721872213702198 10.9535984689117019  7.4315433604093712
 16.4422150654002834  6.5721565374365074  7.4321489402292480
 13.9127657174673036  2.1910207062946965  7.4321489477228742
  2.5296394450562425 -0.0003784649754702  7.4321396266390822
  7.5891597778741851  8.7627141423924950  7.4320315959276320
  5.0595841337176966  4.3816152524118781  7.4321396077987956
  7.5889073193310583 -0.0000195345245296  7.4316970263791733
 12.6477528554598493  8.7622193047080827  7.4341384142497864
 10.1188848689559538  4.3820906449296695  7.4341384158948314
 12.6481283323266371  0.0000765061469747  7.4315768689797777
 17.7073093979854157  8.7628369550005303  7.4315768490769303
 15.1767998488160760  4.3819873086678482  7.4336718720949282
 -0.0000322246909936 -0.0000195345588528  7.4316970263293936
  5.0593151856612240  8.7628369534229513  7.4315768467936376
  2.5292907754389979  4.3816152509494568  7.4321396035979133
  5.0592356470226019 -0.0003784648931488  7.4321396248391034
 10.1188717281494860  8.7622193062860259  7.4341384168360793
  7.5898247557624927  4.3819873087267363  7.4336718724413196
 10.1184964598365053  0.0000765060621769  7.4315768708436103
 15.1774648078841299  8.7627141423317205  7.4320315958489367
 12.6477397402727938  4.3820906464071019  7.4341384201526957
  8.8541632289793615  9.4923894714589796  9.5504306178933760
  6.3256472480981882  5.1122423632911911  9.5509528152095609
  3.7944375091138025  0.7296376467931448  9.5500634154775774
 13.9124612641635501  9.4923894732586493  9.5504306244600983
 11.3833122681962049  5.1124498735534809  9.5529796302776617
  8.8537699087852921  0.7305703185391234  9.5497780922227236
 18.9721870940751636  9.4930360351747662  9.5495563608951954
 16.4409772913039980  5.1122423683682143  9.5509528162967854
 13.9128548014930900  0.7305703216191569  9.5497780867050484
  6.3242027069804196  9.4930377851720564  9.5495599157850748
  3.7944374181430551  5.1119204148977611  9.5500743702684545
  1.2646035398727802  0.7301186780222623  9.5500743635320102
 11.3833122440824148  9.4907395537924675  9.5533712562070203
  8.8557478273501236  5.1128687049219552  9.5533712830410842
  6.3242714703785339  0.7301186815346274  9.5500743582355643
 16.4424217860480191  9.4930377833735076  9.5495599091953594
 13.9108767118535468  5.1128686999988835  9.5533712822994907
 11.3833123591700058  0.7304014280799048  9.5495599293610933
  7.5891202234393376 11.6836017724480392  9.5497780975491668
  5.0595777569212510  7.3023049124483546  9.5497780797007472
  2.5291038933950429  2.9212600608001789  9.5500634397494331
 12.6478201446014928 11.6821845157991948  9.5509528145855125
 10.1191673193077829  7.3020135442680685  9.5529796048696749
  7.5901551543423009  2.9220501040295792  9.5509528273904358
 17.7073029549320715 11.6838800994206693  9.5495563846067775
 15.1768800828024446  7.3023514508091285  9.5504306253441165
 12.6477311192517412  2.9217360492168845  9.5504306545241935
 10.1188044096252590 11.6821845106817381  9.5509528134752699
  7.5897444353168506  7.3023514507704403  9.5504306253134210
  5.0597710308399977  2.9212600590061379  9.5500634331757510
 15.1775043277103165 11.6836017724859715  9.5497780976139648
 12.6474571908874225  7.3020135411814673  9.5529796101880660
 10.1188935049272999  2.9217360509897796  9.5504306608557279
 20.2370712993918467 11.6838801043741576  9.5495563857876604
 17.7070467531855087  7.3023049156448749  9.5497780742837151
 15.1764694648326568  2.9220501040041511  9.5509528273715514
  8.8541929198222640 12.4124181782714960 11.6475938257658775
  6.3254358808640614  8.0324659391729973 11.6471650148350463
  3.7944374199099999  3.6516532863803080 11.6470949689590757
 13.9124315659214552 12.4124181715820061 11.6475938252709241
 11.3833122494502490  8.0312110064489985 11.6431996362279815
  8.8577611187731353  3.6539412477376683 11.6493216133563369
 18.9721870922934386 12.4144142943589522 11.6468434825969709
 16.4411886179965379  8.0324659367115085 11.6471650150243082
 13.9088634201059662  3.6539412522890236 11.6493216147457570
 11.3833122422851556 12.4112927232577483 11.6478446824596151
  8.8563191139021509  8.0311197184549137 11.6465182182330764
  6.3264752963088799  3.6525925521750273 11.6478447072770130
 16.4423076664862258 12.4142258552461744 11.6468606273732487
 13.9103053849830651  8.0311197207018576 11.6465182180818747
 11.3833122698648097  3.6542384005921615 11.6465182509713312
 21.5020665191030567 12.4142258485891706 11.6468606267968315
 18.9721870994387345  8.0323453502716440 11.6468606201907683
 16.4401492426282871  3.6525925479161332 11.6478447065129362
 10.1188373399429423 10.2184601316584462 11.6493215774993608
  7.5932862076110101  5.8440764384395321 11.6493215961314949
  5.0596429456807330  1.4602526531545639 11.6470949863587734
 15.1769128553616053 10.2222561682153614 11.6471650069638422
 12.6468878781822980  5.8426334202349191 11.6431996503091479
 10.1190365277818799  1.4617557154903240 11.6471650633177681
 20.2372900023898694 10.2231913625834245 11.6468434677043700
 17.7056835647031896  5.8423118121849855 11.6475938312077361
 15.1765642700705534  1.4617478305940690 11.6475938665609000
  7.5897116331112375 10.2222561683049129 11.6471650068118855
  5.0609409560364895  5.8423118189165164 11.6475938317470469
  2.5292319284469151  1.4602526556058795 11.6470949862153184
 12.6477871480541317 10.2184601276809417 11.6493215763179556
 10.1197366427153330  5.8426334135456424 11.6431996502375075
  7.5900603042316428  1.4617478304501741 11.6475938665517393
 17.7070841853088723 10.2231913668708874 11.6468434683107773
 15.1733383120949945  5.8440764384625812 11.6493215961438619
 12.6475880463430528  1.4617557130129939 11.6471650633217720
  6.3256561296491141 10.9525629778581326 13.7641704712819646
  3.7944374117377575  6.5719711328232933 13.7639863795578918
  1.2633150324255031  2.1918653265140651 13.7643311239702530
 11.3833122480952866 10.9468433264161664 13.7651835849097015
  8.8750130499317308  6.5725274804262819 13.7637654460814449
  6.3255598137442917  2.1918653278619051 13.7643311237376373
 16.4409683687257200 10.9525629733940981 13.7641704702297734
 13.8916114713564376  6.5725274750388669 13.7637654452819618
 11.3833122730842327  2.1975731348933749 13.7641034919095215
  8.8577390409048729 10.9464943720395151 13.7646408860540017
  6.3322412982747149  6.5722031336550959 13.7646409032219044
  3.7944374225871611  2.1907198408915916 13.7645720168442356
 13.9088854576356447 10.9464943761646261 13.7646408870451840
  8.8578145044190126  2.1977812272467805 13.7646409310198550
 18.9721870985123999 10.9535993136549532 13.7644945392136080
 16.4343832226464492  6.5722031393509432 13.7646409040786839
 13.9088100414871931  2.1977812283424303 13.7646409307599509
  2.5298682443632767 -0.0018696057661292 13.7643311000718693
  7.5948099561751716  8.7594528034642973 13.7641034506938542
  5.0609906272687466  4.3821637905144541 13.7643310999311215
  7.5887116475477390  0.0000941859399917 13.7639863843959240
 12.6377804846325823  8.7442268926890669 13.7637654314593103
 10.1294812487097694  4.3997243813599143 13.7637654493499717
 12.6480241471958639  0.0018983823980731 13.7641704925055119
 17.7056802465639578  8.7620173688789080 13.7641704731403820
 15.1718988328886706  4.3848177083270130 13.7651836074917302
  0.0001632033370420  0.0000941859707758 13.7639863843444044
  5.0609442646680805  8.7620173676535877 13.7641704733615313
  2.5278842030540725  4.3821637948756580 13.7643311010124183
  5.0590066042092419 -0.0018696006643246 13.7643311008928837
 10.1288440267584541  8.7442268929208034 13.7637654324677410
  7.5947256964476972  4.3848177087369482 13.7651836075291474
 10.1186004014660167  0.0018983773074860 13.7641704916732657
 15.1718145537001199  8.7594528030390251 13.7641034508532503
 12.6371432808724879  4.3997243775934729 13.7637654488599974
 11.3833122616496336  6.5721595858244344 13.6887978146235145
