K Cu48 H99 N O50                        
   1.00000000000000     
    10.2239000000000004    0.0000000000000000    0.0000000000000000
     0.0000000000000000   10.2239000000000004    0.0000000000000000
     0.0000000000000000    0.0000000000000000   37.6114999999999995
   Cu   O    H    K    N 
    48    50    99     1     1
Selective dynamics
Direct
  0.7579300000000018  0.7579300000000018  0.0480500000000035   F   F   F
  0.0079300000000018  0.7579300000000018  0.0480500000000035   F   F   F
  0.2579300000000018  0.7579300000000018  0.0480500000000035   F   F   F
  0.5079300000000018  0.7579300000000018  0.0480500000000035   F   F   F
  0.7579300000000018  0.0079300000000018  0.0480500000000035   F   F   F
  0.0079300000000018  0.0079300000000018  0.0480500000000035   F   F   F
  0.2579300000000018  0.0079300000000018  0.0480500000000035   F   F   F
  0.5079300000000018  0.0079300000000018  0.0480500000000035   F   F   F
  0.7579300000000018  0.2579300000000018  0.0480500000000035   F   F   F
  0.0079300000000018  0.2579300000000018  0.0480500000000035   F   F   F
  0.2579300000000018  0.2579300000000018  0.0480500000000035   F   F   F
  0.5079300000000018  0.2579300000000018  0.0480500000000035   F   F   F
  0.7579300000000018  0.5079300000000018  0.0480500000000035   F   F   F
  0.0079300000000018  0.5079300000000018  0.0480500000000035   F   F   F
  0.2579300000000018  0.5079300000000018  0.0480500000000035   F   F   F
  0.5079300000000018  0.5079300000000018  0.0480500000000035   F   F   F
  0.7594494264690578  0.7595792498957157  0.1443742758560081   T   T   T
  0.8801945404434010  0.8809059440676349  0.0950957718427309   T   T   T
  0.0089661337573341  0.7579262524955360  0.1414408162926012   T   T   T
  0.1332646936620623  0.8835716345471238  0.0953882437892895   T   T   T
  0.2561688189774014  0.7576908367400769  0.1417363406629243   T   T   T
  0.3860976722793900  0.8802563854737149  0.0948864485289686   T   T   T
  0.5074426337652941  0.7592810460867911  0.1434263011650340   T   T   T
  0.6336346412494465  0.8831413010756003  0.0960058346341229   T   T   T
  0.7588159722400272  0.0104016592888625  0.1420740959088434   T   T   T
  0.8843946908210721  0.1327257725787714  0.0956258994270962   T   T   T
  0.0078080602550041  0.0060117144742194  0.1423366081195582   T   T   T
  0.1331677309168139  0.1325410428456303  0.0942080471077598   T   T   T
  0.2596667220491388  0.0063792070187757  0.1421672892644939   T   T   T
  0.3827035390594898  0.1332209579369503  0.0954667784333092   T   T   T
  0.5074354000332278  0.0096457254228009  0.1416668115125747   T   T   T
  0.6333973444344227  0.1333143619034388  0.0942076317058950   T   T   T
  0.7591327475805871  0.2579567691462767  0.1416837502766487   T   T   T
  0.8809131633205901  0.3861530075145492  0.0951768759328505   T   T   T
  0.0074318988410302  0.2584095902939701  0.1420741741522852   T   T   T
  0.1327719843598709  0.3815660169222155  0.0955143027142853   T   T   T
  0.2607350279722944  0.2584894927034870  0.1419098013297056   T   T   T
  0.3859083088079458  0.3855297832776543  0.0948467812181293   T   T   T
  0.5089698257711326  0.2571523045027161  0.1418122328524865   T   T   T
  0.6333005318802130  0.3845715177864505  0.0960352198069429   T   T   T
  0.7585420890901753  0.5081481175447484  0.1445446693980954   T   T   T
  0.8818999922831287  0.6326539553356120  0.0961065663617675   T   T   T
  0.0089151763459603  0.5074259199013899  0.1421500829321618   T   T   T
  0.1328563346508052  0.6327573116249613  0.0942074602669456   T   T   T
  0.2557606870707634  0.5057896224791126  0.1418097470400478   T   T   T
  0.3832830458779617  0.6326732517121767  0.0960730633334143   T   T   T
  0.5074088874323832  0.5079129709981574  0.1439870105807632   T   T   T
  0.6333608174728590  0.6334364182329760  0.0923359865123385   T   T   T
  0.6006671214619025  0.9611925953182547  0.4419198338272276   T   T   T
  0.2651945343810821  0.2985443010716849  0.2906144338051792   T   T   T
  0.0404693803193597  0.0785755853885824  0.5134869444287066   T   T   T
  0.4089703436397894  0.3058116360553900  0.4438199373562214   T   T   T
  0.5418966716121177  0.6879066469779077  0.3920901178287839   T   T   T
  0.0939416452815267  0.4927165264859892  0.3114503645622655   T   T   T
  0.3398171062086189  0.2820251236360652  0.3737806370621737   T   T   T
  0.6972641036133350  0.3852479983382500  0.2247915690471172   T   T   T
  0.1102348513883451  0.2941600016126300  0.2214934155228311   T   T   T
  0.7778763185692390  0.0916195049295351  0.2382499590002494   T   T   T
  0.5735435342534426  0.5467227488327778  0.5263005664468201   T   T   T
  0.8131005399844785  0.8905278513301012  0.3194018312048704   T   T   T
  0.6163736905006187  0.9386047275310002  0.3684815572057131   T   T   T
  0.8012054450541980  0.8000295035951117  0.4584003280942758   T   T   T
  0.9563172052101224  0.0879871885854493  0.2940223713853923   T   T   T
  0.2615461756655336  0.9081852125730666  0.3029006280958220   T   T   T
  0.2326207036137609  0.0451119032511951  0.3664768627339189   T   T   T
  0.7358085131745581  0.3207612205303367  0.3627268519142726   T   T   T
  0.5441422308846322  0.6165608607683774  0.2899457873617077   T   T   T
  0.0863290907391202  0.3763839584205710  0.5352155944062866   T   T   T
  0.5664538569155301  0.2952549592422844  0.5465789300691160   T   T   T
  0.2000596335315160  0.6935433338595788  0.4344024232530402   T   T   T
  0.5418858351614864  0.1678037067155545  0.3370759034465370   T   T   T
  0.3970418289176881  0.5545413655877240  0.4704595036403746   T   T   T
  0.0928169600024217  0.9315779769668991  0.2463408207878739   T   T   T
  0.9320961049688925  0.7291264523339367  0.2278245028674711   T   T   T
  0.4467192361100718  0.3970399993518951  0.2477526897802643   T   T   T
  0.7001980673489778  0.5722910755802070  0.3465562493038591   T   T   T
  0.3606141705538091  0.6186256615019780  0.2207832225205866   T   T   T
  0.4851865844121709  0.0108465968334057  0.2791550800455487   T   T   T
  0.6758001359801588  0.3350516192119311  0.4327882717261041   T   T   T
  0.1044287772362349  0.6075780149989217  0.5013004754841838   T   T   T
  0.3430044648265583  0.9199244510759415  0.4254989350277021   T   T   T
  0.9923955342509844  0.0968142077687432  0.4149204749756134   T   T   T
 -0.0143790069840898  0.2482789134209159  0.3505023600140313   T   T   T
  0.6299088262290358  0.0996120944912785  0.5057552470684910   T   T   T
  0.2964365942937905  0.6563782337262785  0.3150037977715662   T   T   T
  0.3880719625851344  0.1474723838915104  0.2219056344228332   T   T   T
  0.8452928308480443  0.1847667801588165  0.4699211717739246   T   T   T
  0.9353646836327932  0.6804894726477055  0.3501003434365193   T   T   T
  0.9415252597586038  0.8244801297897032  0.5190357438290620   T   T   T
  0.3054812149315382  0.5583706897620377  0.3803335405752162   T   T   T
  0.2167329369499050  0.1181574447117315  0.4578078375250224   T   T   T
  0.9531950999499069  0.4745169696215033  0.2493455968604913   T   T   T
  0.9925575700412581  0.8250021942450653  0.4102238327210780   T   T   T
  0.6696843031303927  0.5766616981101068  0.4602469057900288   T   T   T
  0.6226542593521085  0.6462345658719755  0.2077810764828141   T   T   T
  0.3131332240638774  0.3141189387784533  0.5730079606321286   T   T   T
  0.8558235525969782  0.4356626343332356  0.5702214336368003   T   T   T
  0.7726061901960916  0.6778974817460047  0.5646907470535317   T   T   T
  0.6724437966738841  0.8999749689546690  0.4493135732052834   T   T   T
  0.5934519741393065  0.0241649756320581  0.4617199996645968   T   T   T
  0.2015986776140535  0.3654113424577116  0.2992819112688906   T   T   T
  0.3001496145966212  0.2580910337046989  0.3120422150151721   T   T   T
  0.9684175478369625  0.1195100351609060  0.4998548117958508   T   T   T
  0.1144893879054968  0.0780545358747458  0.4961538617795326   T   T   T
  0.3420781955561546  0.2437899638651553  0.4531874801217088   T   T   T
  0.3917024692529786  0.3935580454168861  0.4544982448766672   T   T   T
  0.5403716366699767  0.7767720147453614  0.3815911799110736   T   T   T
  0.4552501068799527  0.6465987171595597  0.3884047705603686   T   T   T
  0.1666007808048882  0.5583613775025043  0.3083921698727374   T   T   T
  0.0381934447488345  0.4933489706764649  0.2896539587415584   T   T   T
  0.2875015921458326  0.1981647344313250  0.3721037593120611   T   T   T
  0.3679183143822315  0.2884161648323279  0.3992338143314925   T   T   T
  0.6052798789926889  0.3760828067924001  0.2335672655028977   T   T   T
  0.6944124460165642  0.3655510107009191  0.1989789228474487   T   T   T
  0.1831061365405064  0.2575727442604255  0.2351055927797985   T   T   T
  0.1443607671312649  0.3128162716211674  0.1973602978792810   T   T   T
  0.7471152850395429  0.1797007946561376  0.2324180108004726   T   T   T
  0.8432201208735086  0.1055494272313112  0.2573637981598716   T   T   T
  0.6260829523127960  0.5994028805754744  0.5431786385822276   T   T   T
  0.6228453110563261  0.5534221164624706  0.5033893398817866   T   T   T
  0.8689420062008696  0.8181194088721362  0.3285143632663982   T   T   T
  0.7493388472465448  0.9095757009626825  0.3387801320599994   T   T   T
  0.6266380309911092  0.9629660509376738  0.3938023858345894   T   T   T
  0.5779834641590496  0.0186696853105349  0.3573076617713226   T   T   T
  0.8483736834720138  0.8100809208598573  0.4816106223312056   T   T   T
  0.7609188126096721  0.7103260530925004  0.4584034220301303   T   T   T
  0.9063441571068727  0.0138030426198506  0.3053849376169530   T   T   T
  0.0180131051773814  0.0438492169931047  0.2775888580725052   T   T   T
  0.2019117534069367  0.9142581733669403  0.2821958115981130   T   T   T
  0.3477539004368215  0.9443643561058699  0.2940952557417557   T   T   T
  0.2369013813973839  0.9957582089673656  0.3436198578797446   T   T   T
  0.2764888917719966  0.9907658973342812  0.3846568868876310   T   T   T
  0.7178520599312339  0.3192650402135237  0.3888411422756030   T   T   T
  0.8292577939864025  0.2938259541488553  0.3589656481288211   T   T   T
  0.5295425100052594  0.5335280391389080  0.2773676532875069   T   T   T
  0.6041714037418906  0.5960116812616921  0.3103678620445282   T   T   T
  0.0935476467736397  0.4539386928326302  0.5189021298853959   T   T   T
  0.0778154872203969  0.2961357869580492  0.5211910635111558   T   T   T
  0.5687098008007097  0.3873274878731399  0.5373510682883607   T   T   T
  0.4783881479720734  0.2891537083944306  0.5575408287706135   T   T   T
  0.1198793239560853  0.7425694854700167  0.4260431756372777   T   T   T
  0.2272363196937507  0.6364578803166037  0.4140095346817051   T   T   T
  0.6209304917814906  0.2217502085748437  0.3429180501629505   T   T   T
  0.4698615003117889  0.2109143985026178  0.3507647144346653   T   T   T
  0.4201651935807860  0.5631171836668449  0.4957627264925530   T   T   T
  0.3223617106490752  0.6126976095943366  0.4657985320856071   T   T   T
  0.0398320224402883  0.8537972026192341  0.2388245529468493   T   T   T
  0.1242703010295940  0.9725318243189190  0.2245118678350967   T   T   T
  0.9483939940306922  0.6357351213760333  0.2345323283612156   T   T   T
  0.9188443438887034  0.7266062551693331  0.2018522399466174   T   T   T
  0.4005934482310479  0.4726183325165955  0.2356962570466981   T   T   T
  0.3843761660013098  0.3635310197207355  0.2664636260674485   T   T   T
  0.7112776650015150  0.4767210370985046  0.3522464916138073   T   T   T
  0.6423334707580020  0.6111432795719680  0.3656781554359484   T   T   T
  0.4530837410838722  0.6421685108981906  0.2149931482270396   T   T   T
  0.3157457836326117  0.6216987236880309  0.1976281549085412   T   T   T
  0.4574031949515951  0.0611787848973106  0.2577822838941840   T   T   T
  0.5123286924614245  0.0759683442335458  0.2972458327657461   T   T   T
  0.7380890214109772  0.2820580316831287  0.4475284095200811   T   T   T
  0.5851437543208496  0.3071587134921669  0.4387102606059214   T   T   T
  0.0524318390690918  0.6827247636793697  0.5098260818560568   T   T   T
  0.1260132403561274  0.6280516877006332  0.4763335730387906   T   T   T
  0.4380646221571824  0.9176560731690291  0.4312589322122803   T   T   T
  0.3042167904736518  0.8324780378106631  0.4304914284534138   T   T   T
  0.9967493152708494  0.0020429431199155  0.4088322031785088   T   T   T
 -0.0003188899200084  0.1454663719018746  0.3922486098190832   T   T   T
  0.0360857008606503  0.3262083184073353  0.3439900943989825   T   T   T
 -0.0126641510572283  0.1900278143460240  0.3288847748161177   T   T   T
  0.6354778360869808  0.0269664967828763  0.5223219970584233   T   T   T
  0.6002708307315255  0.1782743966624035  0.5206036144219819   T   T   T
  0.3859621371508534  0.6405090973350716  0.3047622451029436   T   T   T
  0.2797241622956673  0.7528237303421467  0.3109273810499033   T   T   T
  0.3997412856150012  0.1273380900284418  0.1963213635351305   T   T   T
  0.4161373476669376  0.2394361128266698  0.2248828480359475   T   T   T
  0.7732124385510346  0.1340349147508834  0.4811488279885381   T   T   T
  0.8825634465833020  0.1379507220650602  0.4488846246010664   T   T   T
 -0.0037512521870296  0.6174522003454815  0.3390513127720498   T   T   T
  0.8471805982509980  0.6356565520255777  0.3498504975299423   T   T   T
  0.9770339432487974  0.9150659350832403  0.5217996268412165   T   T   T
  0.8891862408579843  0.7978204650074916  0.5398202309374399   T   T   T
  0.2962429343184367  0.5979083762269495  0.3559191820300316   T   T   T
  0.3058254574659325  0.4623949561120503  0.3769380317872457   T   T   T
  0.2660761010624533  0.0401701027658903  0.4485678505322415   T   T   T
  0.1419427602761084  0.1237529310109539  0.4408963960291125   T   T   T
  0.8643126575196535  0.4388032124855968  0.2461253540367255   T   T   T
  0.0128444449078174  0.4092835596086423  0.2375591570468238   T   T   T
  0.9175719679240737  0.8110457757984472  0.4271516728696461   T   T   T
  0.9714088271864225  0.7737063802493176  0.3883908657672347   T   T   T
  0.5807067494755022  0.6006897140097009  0.4525269731960075   T   T   T
  0.6857867314033408  0.4898560611901435  0.4484630962303444   T   T   T
  0.2376344465760951  0.3434283853242838  0.5583608752670209   T   T   T
  0.2745051336166589  0.2597371122680757  0.5914936357722641   T   T   T
  0.9356638349846991  0.4074404761573950  0.5569446754368195   T   T   T
  0.7846124885194277  0.3767638260854926  0.5638616775689758   T   T   T
  0.8126982820884160  0.5866811900924901  0.5666601235590796   T   T   T
  0.7490321731296583  0.7007647879904690  0.5889522103078438   T   T   T
  0.6594701808168416  0.5610491480879295  0.2156949604574514   T   T   T
  0.6850638499416606  0.8467942276611322  0.2540054559985219   T   T   T
  0.6328467978643708  0.6368635635621340  0.1674543345908946   T   T   T
 
  0.00000000E+00  0.00000000E+00  0.00000000E+00
  0.00000000E+00  0.00000000E+00  0.00000000E+00
  0.00000000E+00  0.00000000E+00  0.00000000E+00
  0.00000000E+00  0.00000000E+00  0.00000000E+00
  0.00000000E+00  0.00000000E+00  0.00000000E+00
  0.00000000E+00  0.00000000E+00  0.00000000E+00
  0.00000000E+00  0.00000000E+00  0.00000000E+00
  0.00000000E+00  0.00000000E+00  0.00000000E+00
  0.00000000E+00  0.00000000E+00  0.00000000E+00
  0.00000000E+00  0.00000000E+00  0.00000000E+00
  0.00000000E+00  0.00000000E+00  0.00000000E+00
  0.00000000E+00  0.00000000E+00  0.00000000E+00
  0.00000000E+00  0.00000000E+00  0.00000000E+00
  0.00000000E+00  0.00000000E+00  0.00000000E+00
  0.00000000E+00  0.00000000E+00  0.00000000E+00
  0.00000000E+00  0.00000000E+00  0.00000000E+00
  0.00000000E+00  0.00000000E+00  0.00000000E+00
  0.00000000E+00  0.00000000E+00  0.00000000E+00
  0.00000000E+00  0.00000000E+00  0.00000000E+00
  0.00000000E+00  0.00000000E+00  0.00000000E+00
  0.00000000E+00  0.00000000E+00  0.00000000E+00
  0.00000000E+00  0.00000000E+00  0.00000000E+00
  0.00000000E+00  0.00000000E+00  0.00000000E+00
  0.00000000E+00  0.00000000E+00  0.00000000E+00
  0.00000000E+00  0.00000000E+00  0.00000000E+00
  0.00000000E+00  0.00000000E+00  0.00000000E+00
  0.00000000E+00  0.00000000E+00  0.00000000E+00
  0.00000000E+00  0.00000000E+00  0.00000000E+00
  0.00000000E+00  0.00000000E+00  0.00000000E+00
  0.00000000E+00  0.00000000E+00  0.00000000E+00
  0.00000000E+00  0.00000000E+00  0.00000000E+00
  0.00000000E+00  0.00000000E+00  0.00000000E+00
  0.00000000E+00  0.00000000E+00  0.00000000E+00
  0.00000000E+00  0.00000000E+00  0.00000000E+00
  0.00000000E+00  0.00000000E+00  0.00000000E+00
  0.00000000E+00  0.00000000E+00  0.00000000E+00
  0.00000000E+00  0.00000000E+00  0.00000000E+00
  0.00000000E+00  0.00000000E+00  0.00000000E+00
  0.00000000E+00  0.00000000E+00  0.00000000E+00
  0.00000000E+00  0.00000000E+00  0.00000000E+00
  0.00000000E+00  0.00000000E+00  0.00000000E+00
  0.00000000E+00  0.00000000E+00  0.00000000E+00
  0.00000000E+00  0.00000000E+00  0.00000000E+00
  0.00000000E+00  0.00000000E+00  0.00000000E+00
  0.00000000E+00  0.00000000E+00  0.00000000E+00
  0.00000000E+00  0.00000000E+00  0.00000000E+00
  0.00000000E+00  0.00000000E+00  0.00000000E+00
  0.00000000E+00  0.00000000E+00  0.00000000E+00
  0.00000000E+00  0.00000000E+00  0.00000000E+00
  0.00000000E+00  0.00000000E+00  0.00000000E+00
  0.00000000E+00  0.00000000E+00  0.00000000E+00
  0.00000000E+00  0.00000000E+00  0.00000000E+00
  0.00000000E+00  0.00000000E+00  0.00000000E+00
  0.00000000E+00  0.00000000E+00  0.00000000E+00
  0.00000000E+00  0.00000000E+00  0.00000000E+00
  0.00000000E+00  0.00000000E+00  0.00000000E+00
  0.00000000E+00  0.00000000E+00  0.00000000E+00
  0.00000000E+00  0.00000000E+00  0.00000000E+00
  0.00000000E+00  0.00000000E+00  0.00000000E+00
  0.00000000E+00  0.00000000E+00  0.00000000E+00
  0.00000000E+00  0.00000000E+00  0.00000000E+00
  0.00000000E+00  0.00000000E+00  0.00000000E+00
  0.00000000E+00  0.00000000E+00  0.00000000E+00
  0.00000000E+00  0.00000000E+00  0.00000000E+00
  0.00000000E+00  0.00000000E+00  0.00000000E+00
  0.00000000E+00  0.00000000E+00  0.00000000E+00
  0.00000000E+00  0.00000000E+00  0.00000000E+00
  0.00000000E+00  0.00000000E+00  0.00000000E+00
  0.00000000E+00  0.00000000E+00  0.00000000E+00
  0.00000000E+00  0.00000000E+00  0.00000000E+00
  0.00000000E+00  0.00000000E+00  0.00000000E+00
  0.00000000E+00  0.00000000E+00  0.00000000E+00
  0.00000000E+00  0.00000000E+00  0.00000000E+00
  0.00000000E+00  0.00000000E+00  0.00000000E+00
  0.00000000E+00  0.00000000E+00  0.00000000E+00
  0.00000000E+00  0.00000000E+00  0.00000000E+00
  0.00000000E+00  0.00000000E+00  0.00000000E+00
  0.00000000E+00  0.00000000E+00  0.00000000E+00
  0.00000000E+00  0.00000000E+00  0.00000000E+00
  0.00000000E+00  0.00000000E+00  0.00000000E+00
  0.00000000E+00  0.00000000E+00  0.00000000E+00
  0.00000000E+00  0.00000000E+00  0.00000000E+00
  0.00000000E+00  0.00000000E+00  0.00000000E+00
  0.00000000E+00  0.00000000E+00  0.00000000E+00
  0.00000000E+00  0.00000000E+00  0.00000000E+00
  0.00000000E+00  0.00000000E+00  0.00000000E+00
  0.00000000E+00  0.00000000E+00  0.00000000E+00
  0.00000000E+00  0.00000000E+00  0.00000000E+00
  0.00000000E+00  0.00000000E+00  0.00000000E+00
  0.00000000E+00  0.00000000E+00  0.00000000E+00
  0.00000000E+00  0.00000000E+00  0.00000000E+00
  0.00000000E+00  0.00000000E+00  0.00000000E+00
  0.00000000E+00  0.00000000E+00  0.00000000E+00
  0.00000000E+00  0.00000000E+00  0.00000000E+00
  0.00000000E+00  0.00000000E+00  0.00000000E+00
  0.00000000E+00  0.00000000E+00  0.00000000E+00
  0.00000000E+00  0.00000000E+00  0.00000000E+00
  0.00000000E+00  0.00000000E+00  0.00000000E+00
  0.00000000E+00  0.00000000E+00  0.00000000E+00
  0.00000000E+00  0.00000000E+00  0.00000000E+00
  0.00000000E+00  0.00000000E+00  0.00000000E+00
  0.00000000E+00  0.00000000E+00  0.00000000E+00
  0.00000000E+00  0.00000000E+00  0.00000000E+00
  0.00000000E+00  0.00000000E+00  0.00000000E+00
  0.00000000E+00  0.00000000E+00  0.00000000E+00
  0.00000000E+00  0.00000000E+00  0.00000000E+00
  0.00000000E+00  0.00000000E+00  0.00000000E+00
  0.00000000E+00  0.00000000E+00  0.00000000E+00
  0.00000000E+00  0.00000000E+00  0.00000000E+00
  0.00000000E+00  0.00000000E+00  0.00000000E+00
  0.00000000E+00  0.00000000E+00  0.00000000E+00
  0.00000000E+00  0.00000000E+00  0.00000000E+00
  0.00000000E+00  0.00000000E+00  0.00000000E+00
  0.00000000E+00  0.00000000E+00  0.00000000E+00
  0.00000000E+00  0.00000000E+00  0.00000000E+00
  0.00000000E+00  0.00000000E+00  0.00000000E+00
  0.00000000E+00  0.00000000E+00  0.00000000E+00
  0.00000000E+00  0.00000000E+00  0.00000000E+00
  0.00000000E+00  0.00000000E+00  0.00000000E+00
  0.00000000E+00  0.00000000E+00  0.00000000E+00
  0.00000000E+00  0.00000000E+00  0.00000000E+00
  0.00000000E+00  0.00000000E+00  0.00000000E+00
  0.00000000E+00  0.00000000E+00  0.00000000E+00
  0.00000000E+00  0.00000000E+00  0.00000000E+00
  0.00000000E+00  0.00000000E+00  0.00000000E+00
  0.00000000E+00  0.00000000E+00  0.00000000E+00
  0.00000000E+00  0.00000000E+00  0.00000000E+00
  0.00000000E+00  0.00000000E+00  0.00000000E+00
  0.00000000E+00  0.00000000E+00  0.00000000E+00
  0.00000000E+00  0.00000000E+00  0.00000000E+00
  0.00000000E+00  0.00000000E+00  0.00000000E+00
  0.00000000E+00  0.00000000E+00  0.00000000E+00
  0.00000000E+00  0.00000000E+00  0.00000000E+00
  0.00000000E+00  0.00000000E+00  0.00000000E+00
  0.00000000E+00  0.00000000E+00  0.00000000E+00
  0.00000000E+00  0.00000000E+00  0.00000000E+00
  0.00000000E+00  0.00000000E+00  0.00000000E+00
  0.00000000E+00  0.00000000E+00  0.00000000E+00
  0.00000000E+00  0.00000000E+00  0.00000000E+00
  0.00000000E+00  0.00000000E+00  0.00000000E+00
  0.00000000E+00  0.00000000E+00  0.00000000E+00
  0.00000000E+00  0.00000000E+00  0.00000000E+00
  0.00000000E+00  0.00000000E+00  0.00000000E+00
  0.00000000E+00  0.00000000E+00  0.00000000E+00
  0.00000000E+00  0.00000000E+00  0.00000000E+00
  0.00000000E+00  0.00000000E+00  0.00000000E+00
  0.00000000E+00  0.00000000E+00  0.00000000E+00
  0.00000000E+00  0.00000000E+00  0.00000000E+00
  0.00000000E+00  0.00000000E+00  0.00000000E+00
  0.00000000E+00  0.00000000E+00  0.00000000E+00
  0.00000000E+00  0.00000000E+00  0.00000000E+00
  0.00000000E+00  0.00000000E+00  0.00000000E+00
  0.00000000E+00  0.00000000E+00  0.00000000E+00
  0.00000000E+00  0.00000000E+00  0.00000000E+00
  0.00000000E+00  0.00000000E+00  0.00000000E+00
  0.00000000E+00  0.00000000E+00  0.00000000E+00
  0.00000000E+00  0.00000000E+00  0.00000000E+00
  0.00000000E+00  0.00000000E+00  0.00000000E+00
  0.00000000E+00  0.00000000E+00  0.00000000E+00
  0.00000000E+00  0.00000000E+00  0.00000000E+00
  0.00000000E+00  0.00000000E+00  0.00000000E+00
  0.00000000E+00  0.00000000E+00  0.00000000E+00
  0.00000000E+00  0.00000000E+00  0.00000000E+00
  0.00000000E+00  0.00000000E+00  0.00000000E+00
  0.00000000E+00  0.00000000E+00  0.00000000E+00
  0.00000000E+00  0.00000000E+00  0.00000000E+00
  0.00000000E+00  0.00000000E+00  0.00000000E+00
  0.00000000E+00  0.00000000E+00  0.00000000E+00
  0.00000000E+00  0.00000000E+00  0.00000000E+00
  0.00000000E+00  0.00000000E+00  0.00000000E+00
  0.00000000E+00  0.00000000E+00  0.00000000E+00
  0.00000000E+00  0.00000000E+00  0.00000000E+00
  0.00000000E+00  0.00000000E+00  0.00000000E+00
  0.00000000E+00  0.00000000E+00  0.00000000E+00
  0.00000000E+00  0.00000000E+00  0.00000000E+00
  0.00000000E+00  0.00000000E+00  0.00000000E+00
  0.00000000E+00  0.00000000E+00  0.00000000E+00
  0.00000000E+00  0.00000000E+00  0.00000000E+00
  0.00000000E+00  0.00000000E+00  0.00000000E+00
  0.00000000E+00  0.00000000E+00  0.00000000E+00
  0.00000000E+00  0.00000000E+00  0.00000000E+00
  0.00000000E+00  0.00000000E+00  0.00000000E+00
  0.00000000E+00  0.00000000E+00  0.00000000E+00
  0.00000000E+00  0.00000000E+00  0.00000000E+00
  0.00000000E+00  0.00000000E+00  0.00000000E+00
  0.00000000E+00  0.00000000E+00  0.00000000E+00
  0.00000000E+00  0.00000000E+00  0.00000000E+00
  0.00000000E+00  0.00000000E+00  0.00000000E+00
  0.00000000E+00  0.00000000E+00  0.00000000E+00
  0.00000000E+00  0.00000000E+00  0.00000000E+00
  0.00000000E+00  0.00000000E+00  0.00000000E+00
  0.00000000E+00  0.00000000E+00  0.00000000E+00
  0.00000000E+00  0.00000000E+00  0.00000000E+00
  0.00000000E+00  0.00000000E+00  0.00000000E+00
  0.00000000E+00  0.00000000E+00  0.00000000E+00
  0.00000000E+00  0.00000000E+00  0.00000000E+00
  0.00000000E+00  0.00000000E+00  0.00000000E+00
  0.00000000E+00  0.00000000E+00  0.00000000E+00
  0.00000000E+00  0.00000000E+00  0.00000000E+00
