K Cu48 H99 C O50                        
   1.00000000000000     
    10.2239000000000004    0.0000000000000000    0.0000000000000000
     0.0000000000000000   10.2239000000000004    0.0000000000000000
     0.0000000000000000    0.0000000000000000   37.6114999999999995
   Cu   O    H    K    C 
    48    50    99     1     1
Selective dynamics
Direct
  0.7579300000000018  0.7579300000000018  0.0480500000000035   F   F   F
  0.0079300000000018  0.7579300000000018  0.0480500000000035   F   F   F
  0.2579300000000018  0.7579300000000018  0.0480500000000035   F   F   F
  0.5079300000000018  0.7579300000000018  0.0480500000000035   F   F   F
  0.7579300000000018  0.0079300000000018  0.0480500000000035   F   F   F
  0.0079300000000018  0.0079300000000018  0.0480500000000035   F   F   F
  0.2579300000000018  0.0079300000000018  0.0480500000000035   F   F   F
  0.5079300000000018  0.0079300000000018  0.0480500000000035   F   F   F
  0.7579300000000018  0.2579300000000018  0.0480500000000035   F   F   F
  0.0079300000000018  0.2579300000000018  0.0480500000000035   F   F   F
  0.2579300000000018  0.2579300000000018  0.0480500000000035   F   F   F
  0.5079300000000018  0.2579300000000018  0.0480500000000035   F   F   F
  0.7579300000000018  0.5079300000000018  0.0480500000000035   F   F   F
  0.0079300000000018  0.5079300000000018  0.0480500000000035   F   F   F
  0.2579300000000018  0.5079300000000018  0.0480500000000035   F   F   F
  0.5079300000000018  0.5079300000000018  0.0480500000000035   F   F   F
  0.7479507504865874  0.7570839167343623  0.1444531329674063   T   T   T
  0.8833739828504111  0.8785846308531479  0.0959830518458133   T   T   T
  0.0134309960754932  0.7591056013946043  0.1436605389457315   T   T   T
  0.1321889853844468  0.8827195957321096  0.0946734923006125   T   T   T
  0.2576584160966206  0.7575343681057817  0.1430677354316674   T   T   T
  0.3801268579462386  0.8834288706910172  0.0954003762484840   T   T   T
  0.5021382436062163  0.7587669029731021  0.1416572514907152   T   T   T
  0.6327311612439503  0.8800500365809050  0.0944064705846334   T   T   T
  0.7567278365274115  0.0036603034466933  0.1399536113678206   T   T   T
  0.8817236758651658  0.1337679426324121  0.0947612574052572   T   T   T
  0.0076590309958098  0.0083188293930582  0.1419397829196626   T   T   T
  0.1335943364203127  0.1320388407983694  0.0952049604609268   T   T   T
  0.2564968266884680  0.0080236112246992  0.1429162393652988   T   T   T
  0.3832334093928174  0.1323721802248586  0.0944266927755063   T   T   T
  0.5076654255214843  0.0067377228573500  0.1416496551954503   T   T   T
  0.6333935773960068  0.1351418207869524  0.0954978478296029   T   T   T
  0.7595006399458889  0.2574081266332817  0.1452861896824647   T   T   T
  0.8801782981298516  0.3822893051487585  0.0966550510636960   T   T   T
  0.0121624359130584  0.2552949971928629  0.1416134338165556   T   T   T
  0.1326664971994718  0.3820832832682268  0.0940296335554037   T   T   T
  0.2574663000874546  0.2579494670802198  0.1421676831442581   T   T   T
  0.3822993053595537  0.3825839635127312  0.0950917428402779   T   T   T
  0.5055828255261636  0.2572343727462399  0.1414654951052431   T   T   T
  0.6361329278710304  0.3838200114773835  0.0959633328705333   T   T   T
  0.7588214085038623  0.5167039720085975  0.1437291926046382   T   T   T
  0.8831473915739554  0.6326403717174297  0.0941729002693324   T   T   T
  0.0097419930601491  0.5031130231187589  0.1414675409245400   T   T   T
  0.1309169232442565  0.6342830638163778  0.0955006456936953   T   T   T
  0.2561029343301121  0.5103127238971090  0.1412340923456729   T   T   T
  0.3810265310139567  0.6339395050186148  0.0943509196423196   T   T   T
  0.5054410229273729  0.5088973454003243  0.1409979986387614   T   T   T
  0.6319890934881119  0.6329052226698473  0.0949792135806381   T   T   T
  0.5553670355012551  0.5495965565021884  0.2473276458165007   T   T   T
  0.6867514635001980  0.2795014258312587  0.4604653759065060   T   T   T
  0.3025573400416709  0.0629934685823085  0.3342835144336556   T   T   T
  0.8914182506028656  0.5507396814935829  0.5348083529912203   T   T   T
  0.2881367037059303  0.4208510354478779  0.4135115230071574   T   T   T
  0.5278591739265150  0.9527289852902178  0.4493041359040498   T   T   T
  0.3571400649396506  0.4132415415570431  0.2168210821495830   T   T   T
  0.3256396389669393  0.8343797201775581  0.4221933707566700   T   T   T
  0.7541595661714522  0.2267852132333636  0.2026282388057106   T   T   T
  0.0873461822703401  0.7136480635121007  0.2784198236993531   T   T   T
  0.4274990952182794  0.9495487444461985  0.2253451095182873   T   T   T
  0.1465901970768385  0.1561339934303270  0.2305658951225129   T   T   T
  0.6321459636168281  0.7048725106080035  0.4524456933917543   T   T   T
  0.0311265923183445  0.9545345722818961  0.2612751941506679   T   T   T
  0.6655650887900761  0.1057519913978355  0.4050225534289556   T   T   T
  0.6415679841528736  0.5617575557164096  0.5575892986664901   T   T   T
  0.4108990522271639  0.8685820253190130  0.2944652812667816   T   T   T
  0.3082399281451824  0.6429202381648065  0.3180396487524866   T   T   T
  0.1426441858499009  0.9620408804965082  0.3841631777537770   T   T   T
  0.6372732742346939  0.5541142766902564  0.3548757120988200   T   T   T
  0.8973533769006663  0.0803456453394664  0.3131671690885841   T   T   T
  0.9297415074768152  0.3437793623945066  0.4320055438061338   T   T   T
  0.6105694956022332  0.3208996510964552  0.5766548518227482   T   T   T
  0.8743696976790380  0.7023602109831926  0.4728766849783630   T   T   T
  0.5270637941486356  0.1894043501146032  0.3467571274397436   T   T   T
  0.2259244999896094  0.7445985641773801  0.4842482723616718   T   T   T
  0.8317293937324911  0.9758138812748257  0.2165993126898512   T   T   T
  0.1226174693006375  0.5356852247631750  0.2243276731621101   T   T   T
 -0.0418090975852126  0.3414983654539459  0.2389845864336932   T   T   T
  0.4593894386842824  0.4189325045361023  0.3046509510979132   T   T   T
  0.6507824829675751  0.7980746297645637  0.3251586792455925   T   T   T
  0.6699089876409400  0.1629892978846375  0.5254695618867657   T   T   T
  0.6529798047462321  0.0899885429619971  0.2871335188287919   T   T   T
  0.0910615996824908  0.5761828594153358  0.4415392621442402   T   T   T
  0.2679472955393620  0.1911776281060143  0.4937764538791020   T   T   T
  0.4339306416879730  0.3658960688205761  0.4671229221517629   T   T   T
  0.0815811857361030  0.1069233431998519  0.4416506740009478   T   T   T
  0.8888760333394106  0.4822428642067806  0.3671620237483860   T   T   T
  0.0222762228260641  0.3110175209073690  0.5197803087657435   T   T   T
 -0.0057119224140825  0.7319828812927953  0.3860124581226977   T   T   T
  0.5131771373992823  0.1994021439441341  0.2307478500026515   T   T   T
  0.4573298353961945  0.6032776510236564  0.5007874404574003   T   T   T
  0.8116785063477372  0.9284307255649255  0.3685751017703955   T   T   T
  0.0128555714018290  0.9185107396742995  0.4882841391063451   T   T   T
  0.9908163423019833  0.3287856052393478  0.3120790772657226   T   T   T
  0.4035929874467463  0.6285921585114029  0.3847520256488759   T   T   T
  0.2412088929749618  0.2662480142012376  0.2920356510806951   T   T   T
  0.4527460847626712  0.0089564391664570  0.5136759641346625   T   T   T
  0.9034312694354165  0.0703066911604829  0.5402431422353503   T   T   T
  0.7842888147482431  0.6150756667065090  0.2136211464975721   T   T   T
  0.4852600908730096  0.5134847490776534  0.2318322079599203   T   T   T
  0.6361044681018350  0.5496938097815819  0.2327721223407671   T   T   T
  0.6838339079559635  0.2099557023600210  0.4419812102573485   T   T   T
  0.6894033398646180  0.2350990290713482  0.4842934726653125   T   T   T
  0.2645616210038996  0.1324708669666376  0.3186081089005756   T   T   T
  0.2345671991220203  0.0313885331491451  0.3513494237626610   T   T   T
  0.8927556311766355  0.6010548181097479  0.5123914504484577   T   T   T
  0.9391565752970941  0.4682751561074827  0.5303971448125271   T   T   T
  0.2675042118283145  0.3430740588698863  0.3997325247133350   T   T   T
  0.3499288211952190  0.3928105128408146  0.4337814464303966   T   T   T
  0.4488532736954664  0.9172261827443036  0.4364351547070560   T   T   T
  0.5743767977196288  0.0132613142775746  0.4325964366470016   T   T   T
  0.2691322572365607  0.4538603213712134  0.2214573070332325   T   T   T
  0.3611042838492869  0.4045100763432710  0.1904444174873756   T   T   T
  0.2608644115147263  0.8818723805875496  0.4069508986912100   T   T   T
  0.3589189700196329  0.7574245115820022  0.4081975619740584   T   T   T
  0.6608364747295123  0.2252585205867441  0.2109976811069250   T   T   T
  0.7862050451867473  0.1350911049164112  0.2069848872335941   T   T   T
  0.0961670420802381  0.6523675812205728  0.2580641801749959   T   T   T
  0.1585713353835450  0.6892391443928944  0.2948884998801565   T   T   T
  0.3715653013244941  0.9174652699172132  0.2060274474535752   T   T   T
  0.3933534660896348  0.9178552905133215  0.2486479877081308   T   T   T
  0.1131441015889585  0.0696722033291005  0.2398094885647074   T   T   T
  0.1704030266638525  0.1444669579245391  0.2053774515256958   T   T   T
  0.5699503585534793  0.6660138321975319  0.4699132290959683   T   T   T
  0.6043306227121210  0.7976425078235281  0.4505910953959407   T   T   T
 -0.0118690035788788 -0.0060106327891266  0.2827005528355689   T   T   T
  0.0594976202309807  0.8619462812818868  0.2678611133384584   T   T   T
  0.7274416529404227  0.0417850637576314  0.3939262056360415   T   T   T
  0.6169878749307658  0.1459866869087200  0.3848908427086136   T   T   T
  0.7336785041290286  0.5592783055666226  0.5482637684257595   T   T   T
  0.5826912799935551  0.5828715950778950  0.5376883003710171   T   T   T
  0.3670592106853676  0.9385331083184764  0.3087443487504167   T   T   T
  0.3673116391973289  0.7842806333924333  0.3013986089142188   T   T   T
  0.3316084295000260  0.6450191867129516  0.3438947764663871   T   T   T
  0.3575587372558490  0.5651576736033376  0.3096733094572490   T   T   T
  0.0829291963101913  0.8869121711529101  0.3804159372439349   T   T   T
  0.1071121686975006  0.0184079018905169  0.4039252238779775   T   T   T
  0.7279451006754798  0.5213704401495406  0.3603158170974523   T   T   T
  0.5955188957424391  0.4913277357071681  0.3388229852214267   T   T   T
  0.8093680483098170  0.0895467081766716  0.3014361528933102   T   T   T
  0.8794041843586695  0.0274763361470923  0.3350046690437223   T   T   T
  0.8454071997845984  0.3306732515760590  0.4449704960955647   T   T   T
 -0.0220880692994516  0.4100346852817300  0.4457278929909029   T   T   T
  0.6187154964141700  0.4181650568574753  0.5698370949168877   T   T   T
  0.5262985351739548  0.3106968469394067  0.5882379568739183   T   T   T
  0.7788235532897535  0.7019007067859550  0.4647022016678709   T   T   T
  0.9238784696273745  0.6485421856110648  0.4561124565303191   T   T   T
  0.5117852197460003  0.2754498720844664  0.3356214549190097   T   T   T
  0.4410121031911244  0.1421708879387294  0.3456632558075755   T   T   T
  0.1577578802331603  0.8069302253740005  0.4924484328110321   T   T   T
  0.2624158102150436  0.7853788203301949  0.4621807317944293   T   T   T
  0.9122420967033292  0.9641364943768644  0.2319701333959026   T   T   T
  0.8523496469469993  0.9332143100029843  0.1936092376902952   T   T   T
  0.0502264441346982  0.4691977599894396  0.2270201631495447   T   T   T
  0.1130004830516989  0.5733982934525178  0.2002421357276338   T   T   T
  0.8764515183361153  0.3180076990504320  0.2260827853573394   T   T   T
  0.0206302344825510  0.2686128554327384  0.2337130825767949   T   T   T
  0.3841324472693965  0.3640676972896987  0.2965948573389880   T   T   T
  0.5064843966584035  0.4509002939700741  0.2829551761905320   T   T   T
  0.5615610522951933  0.8296368780698917  0.3193103065152457   T   T   T
  0.6418003417215703  0.7077907651945121  0.3349128833793428   T   T   T
  0.5952628871714531  0.1009590392854036  0.5238863703301727   T   T   T
  0.6443124862960736  0.2274421120659940  0.5453230768657706   T   T   T
  0.6067725276550547  0.1176079211070278  0.3091516372464418   T   T   T
  0.6110703064580553  0.1424601941888491  0.2681533029883447   T   T   T
  0.1393776818464209  0.6277286207018982  0.4600808869141642   T   T   T
  0.1574668715990575  0.5179531588924541  0.4305074408952397   T   T   T
  0.3195161344735392  0.1167765218141298  0.5034291808625796   T   T   T
  0.2110935607676596  0.1559401809639957  0.4746572722194490   T   T   T
  0.5262354332821928  0.3342209741330809  0.4639593056002192   T   T   T
  0.3802186337259268  0.2954281307859530  0.4789692471043833   T   T   T
  0.0425107485530842  0.0406513894286224  0.4584460969213413   T   T   T
  0.0215686184137484  0.1830722089763644  0.4400263221826632   T   T   T
  0.9265202044535120  0.4294879651294978  0.3473470069330596   T   T   T
  0.9020498046660204  0.4305299348225937  0.3893411294307473   T   T   T
  0.1143935745289712  0.2875353889448702  0.5162939112432643   T   T   T
  0.9824191792190867  0.2305152191325049  0.5293943831661816   T   T   T
  0.0328514787508857  0.6894499614238326  0.4074014807109471   T   T   T
  0.9614810321415402  0.6553048654869403  0.3725959466905108   T   T   T
  0.4702407079750563  0.1137875365314379  0.2254615469867370   T   T   T
  0.4462961183810611  0.2690106191957099  0.2279512458076024   T   T   T
  0.4407120982959368  0.5145496732111695  0.4908409208747536   T   T   T
  0.3727100098540174  0.6499125297587257  0.5004388290326229   T   T   T
  0.8679580706291411  0.8599405687579338  0.3792116308886350   T   T   T
  0.7463615464809407  0.8797056174630806  0.3534078177155264   T   T   T
  0.9521294667560736  0.8447589654426551  0.4818940020389342   T   T   T
  0.9724518291761468  0.9645279704593595  0.5089443921378370   T   T   T
  0.9566658228939177  0.2376596719728089  0.3157591471716590   T   T   T
  0.9626635443181135  0.3491150296250005  0.2873201621258638   T   T   T
  0.3641614433045365  0.5466399761286601  0.3947132019444808   T   T   T
  0.4976582938713903  0.6090224884110060  0.3809415021829219   T   T   T
  0.1544044958693256  0.2997730980784400  0.3005968758154344   T   T   T
  0.2235477781925059  0.2317192796100572  0.2677454177648457   T   T   T
  0.4828755548725088  0.9842359361623104  0.4887206472704823   T   T   T
  0.4390388168445144  0.9274246378893418  0.5265176904591705   T   T   T
  0.8095654800476243  0.0986874328734979  0.5356023439495813   T   T   T
  0.9065647337434996  0.0416691875740702  0.5648808887372864   T   T   T
  0.9389375738430267  0.6804332130496430  0.1849855810922426   T   T   T
  0.6513552199654812  0.8220157630175199  0.2504028744354991   T   T   T
  0.8264834566157566  0.6521985506658639  0.1839102731501501   T   T   T
 
  0.00000000E+00  0.00000000E+00  0.00000000E+00
  0.00000000E+00  0.00000000E+00  0.00000000E+00
  0.00000000E+00  0.00000000E+00  0.00000000E+00
  0.00000000E+00  0.00000000E+00  0.00000000E+00
  0.00000000E+00  0.00000000E+00  0.00000000E+00
  0.00000000E+00  0.00000000E+00  0.00000000E+00
  0.00000000E+00  0.00000000E+00  0.00000000E+00
  0.00000000E+00  0.00000000E+00  0.00000000E+00
  0.00000000E+00  0.00000000E+00  0.00000000E+00
  0.00000000E+00  0.00000000E+00  0.00000000E+00
  0.00000000E+00  0.00000000E+00  0.00000000E+00
  0.00000000E+00  0.00000000E+00  0.00000000E+00
  0.00000000E+00  0.00000000E+00  0.00000000E+00
  0.00000000E+00  0.00000000E+00  0.00000000E+00
  0.00000000E+00  0.00000000E+00  0.00000000E+00
  0.00000000E+00  0.00000000E+00  0.00000000E+00
  0.00000000E+00  0.00000000E+00  0.00000000E+00
  0.00000000E+00  0.00000000E+00  0.00000000E+00
  0.00000000E+00  0.00000000E+00  0.00000000E+00
  0.00000000E+00  0.00000000E+00  0.00000000E+00
  0.00000000E+00  0.00000000E+00  0.00000000E+00
  0.00000000E+00  0.00000000E+00  0.00000000E+00
  0.00000000E+00  0.00000000E+00  0.00000000E+00
  0.00000000E+00  0.00000000E+00  0.00000000E+00
  0.00000000E+00  0.00000000E+00  0.00000000E+00
  0.00000000E+00  0.00000000E+00  0.00000000E+00
  0.00000000E+00  0.00000000E+00  0.00000000E+00
  0.00000000E+00  0.00000000E+00  0.00000000E+00
  0.00000000E+00  0.00000000E+00  0.00000000E+00
  0.00000000E+00  0.00000000E+00  0.00000000E+00
  0.00000000E+00  0.00000000E+00  0.00000000E+00
  0.00000000E+00  0.00000000E+00  0.00000000E+00
  0.00000000E+00  0.00000000E+00  0.00000000E+00
  0.00000000E+00  0.00000000E+00  0.00000000E+00
  0.00000000E+00  0.00000000E+00  0.00000000E+00
  0.00000000E+00  0.00000000E+00  0.00000000E+00
  0.00000000E+00  0.00000000E+00  0.00000000E+00
  0.00000000E+00  0.00000000E+00  0.00000000E+00
  0.00000000E+00  0.00000000E+00  0.00000000E+00
  0.00000000E+00  0.00000000E+00  0.00000000E+00
  0.00000000E+00  0.00000000E+00  0.00000000E+00
  0.00000000E+00  0.00000000E+00  0.00000000E+00
  0.00000000E+00  0.00000000E+00  0.00000000E+00
  0.00000000E+00  0.00000000E+00  0.00000000E+00
  0.00000000E+00  0.00000000E+00  0.00000000E+00
  0.00000000E+00  0.00000000E+00  0.00000000E+00
  0.00000000E+00  0.00000000E+00  0.00000000E+00
  0.00000000E+00  0.00000000E+00  0.00000000E+00
  0.00000000E+00  0.00000000E+00  0.00000000E+00
  0.00000000E+00  0.00000000E+00  0.00000000E+00
  0.00000000E+00  0.00000000E+00  0.00000000E+00
  0.00000000E+00  0.00000000E+00  0.00000000E+00
  0.00000000E+00  0.00000000E+00  0.00000000E+00
  0.00000000E+00  0.00000000E+00  0.00000000E+00
  0.00000000E+00  0.00000000E+00  0.00000000E+00
  0.00000000E+00  0.00000000E+00  0.00000000E+00
  0.00000000E+00  0.00000000E+00  0.00000000E+00
  0.00000000E+00  0.00000000E+00  0.00000000E+00
  0.00000000E+00  0.00000000E+00  0.00000000E+00
  0.00000000E+00  0.00000000E+00  0.00000000E+00
  0.00000000E+00  0.00000000E+00  0.00000000E+00
  0.00000000E+00  0.00000000E+00  0.00000000E+00
  0.00000000E+00  0.00000000E+00  0.00000000E+00
  0.00000000E+00  0.00000000E+00  0.00000000E+00
  0.00000000E+00  0.00000000E+00  0.00000000E+00
  0.00000000E+00  0.00000000E+00  0.00000000E+00
  0.00000000E+00  0.00000000E+00  0.00000000E+00
  0.00000000E+00  0.00000000E+00  0.00000000E+00
  0.00000000E+00  0.00000000E+00  0.00000000E+00
  0.00000000E+00  0.00000000E+00  0.00000000E+00
  0.00000000E+00  0.00000000E+00  0.00000000E+00
  0.00000000E+00  0.00000000E+00  0.00000000E+00
  0.00000000E+00  0.00000000E+00  0.00000000E+00
  0.00000000E+00  0.00000000E+00  0.00000000E+00
  0.00000000E+00  0.00000000E+00  0.00000000E+00
  0.00000000E+00  0.00000000E+00  0.00000000E+00
  0.00000000E+00  0.00000000E+00  0.00000000E+00
  0.00000000E+00  0.00000000E+00  0.00000000E+00
  0.00000000E+00  0.00000000E+00  0.00000000E+00
  0.00000000E+00  0.00000000E+00  0.00000000E+00
  0.00000000E+00  0.00000000E+00  0.00000000E+00
  0.00000000E+00  0.00000000E+00  0.00000000E+00
  0.00000000E+00  0.00000000E+00  0.00000000E+00
  0.00000000E+00  0.00000000E+00  0.00000000E+00
  0.00000000E+00  0.00000000E+00  0.00000000E+00
  0.00000000E+00  0.00000000E+00  0.00000000E+00
  0.00000000E+00  0.00000000E+00  0.00000000E+00
  0.00000000E+00  0.00000000E+00  0.00000000E+00
  0.00000000E+00  0.00000000E+00  0.00000000E+00
  0.00000000E+00  0.00000000E+00  0.00000000E+00
  0.00000000E+00  0.00000000E+00  0.00000000E+00
  0.00000000E+00  0.00000000E+00  0.00000000E+00
  0.00000000E+00  0.00000000E+00  0.00000000E+00
  0.00000000E+00  0.00000000E+00  0.00000000E+00
  0.00000000E+00  0.00000000E+00  0.00000000E+00
  0.00000000E+00  0.00000000E+00  0.00000000E+00
  0.00000000E+00  0.00000000E+00  0.00000000E+00
  0.00000000E+00  0.00000000E+00  0.00000000E+00
  0.00000000E+00  0.00000000E+00  0.00000000E+00
  0.00000000E+00  0.00000000E+00  0.00000000E+00
  0.00000000E+00  0.00000000E+00  0.00000000E+00
  0.00000000E+00  0.00000000E+00  0.00000000E+00
  0.00000000E+00  0.00000000E+00  0.00000000E+00
  0.00000000E+00  0.00000000E+00  0.00000000E+00
  0.00000000E+00  0.00000000E+00  0.00000000E+00
  0.00000000E+00  0.00000000E+00  0.00000000E+00
  0.00000000E+00  0.00000000E+00  0.00000000E+00
  0.00000000E+00  0.00000000E+00  0.00000000E+00
  0.00000000E+00  0.00000000E+00  0.00000000E+00
  0.00000000E+00  0.00000000E+00  0.00000000E+00
  0.00000000E+00  0.00000000E+00  0.00000000E+00
  0.00000000E+00  0.00000000E+00  0.00000000E+00
  0.00000000E+00  0.00000000E+00  0.00000000E+00
  0.00000000E+00  0.00000000E+00  0.00000000E+00
  0.00000000E+00  0.00000000E+00  0.00000000E+00
  0.00000000E+00  0.00000000E+00  0.00000000E+00
  0.00000000E+00  0.00000000E+00  0.00000000E+00
  0.00000000E+00  0.00000000E+00  0.00000000E+00
  0.00000000E+00  0.00000000E+00  0.00000000E+00
  0.00000000E+00  0.00000000E+00  0.00000000E+00
  0.00000000E+00  0.00000000E+00  0.00000000E+00
  0.00000000E+00  0.00000000E+00  0.00000000E+00
  0.00000000E+00  0.00000000E+00  0.00000000E+00
  0.00000000E+00  0.00000000E+00  0.00000000E+00
  0.00000000E+00  0.00000000E+00  0.00000000E+00
  0.00000000E+00  0.00000000E+00  0.00000000E+00
  0.00000000E+00  0.00000000E+00  0.00000000E+00
  0.00000000E+00  0.00000000E+00  0.00000000E+00
  0.00000000E+00  0.00000000E+00  0.00000000E+00
  0.00000000E+00  0.00000000E+00  0.00000000E+00
  0.00000000E+00  0.00000000E+00  0.00000000E+00
  0.00000000E+00  0.00000000E+00  0.00000000E+00
  0.00000000E+00  0.00000000E+00  0.00000000E+00
  0.00000000E+00  0.00000000E+00  0.00000000E+00
  0.00000000E+00  0.00000000E+00  0.00000000E+00
  0.00000000E+00  0.00000000E+00  0.00000000E+00
  0.00000000E+00  0.00000000E+00  0.00000000E+00
  0.00000000E+00  0.00000000E+00  0.00000000E+00
  0.00000000E+00  0.00000000E+00  0.00000000E+00
  0.00000000E+00  0.00000000E+00  0.00000000E+00
  0.00000000E+00  0.00000000E+00  0.00000000E+00
  0.00000000E+00  0.00000000E+00  0.00000000E+00
  0.00000000E+00  0.00000000E+00  0.00000000E+00
  0.00000000E+00  0.00000000E+00  0.00000000E+00
  0.00000000E+00  0.00000000E+00  0.00000000E+00
  0.00000000E+00  0.00000000E+00  0.00000000E+00
  0.00000000E+00  0.00000000E+00  0.00000000E+00
  0.00000000E+00  0.00000000E+00  0.00000000E+00
  0.00000000E+00  0.00000000E+00  0.00000000E+00
  0.00000000E+00  0.00000000E+00  0.00000000E+00
  0.00000000E+00  0.00000000E+00  0.00000000E+00
  0.00000000E+00  0.00000000E+00  0.00000000E+00
  0.00000000E+00  0.00000000E+00  0.00000000E+00
  0.00000000E+00  0.00000000E+00  0.00000000E+00
  0.00000000E+00  0.00000000E+00  0.00000000E+00
  0.00000000E+00  0.00000000E+00  0.00000000E+00
  0.00000000E+00  0.00000000E+00  0.00000000E+00
  0.00000000E+00  0.00000000E+00  0.00000000E+00
  0.00000000E+00  0.00000000E+00  0.00000000E+00
  0.00000000E+00  0.00000000E+00  0.00000000E+00
  0.00000000E+00  0.00000000E+00  0.00000000E+00
  0.00000000E+00  0.00000000E+00  0.00000000E+00
  0.00000000E+00  0.00000000E+00  0.00000000E+00
  0.00000000E+00  0.00000000E+00  0.00000000E+00
  0.00000000E+00  0.00000000E+00  0.00000000E+00
  0.00000000E+00  0.00000000E+00  0.00000000E+00
  0.00000000E+00  0.00000000E+00  0.00000000E+00
  0.00000000E+00  0.00000000E+00  0.00000000E+00
  0.00000000E+00  0.00000000E+00  0.00000000E+00
  0.00000000E+00  0.00000000E+00  0.00000000E+00
  0.00000000E+00  0.00000000E+00  0.00000000E+00
  0.00000000E+00  0.00000000E+00  0.00000000E+00
  0.00000000E+00  0.00000000E+00  0.00000000E+00
  0.00000000E+00  0.00000000E+00  0.00000000E+00
  0.00000000E+00  0.00000000E+00  0.00000000E+00
  0.00000000E+00  0.00000000E+00  0.00000000E+00
  0.00000000E+00  0.00000000E+00  0.00000000E+00
  0.00000000E+00  0.00000000E+00  0.00000000E+00
  0.00000000E+00  0.00000000E+00  0.00000000E+00
  0.00000000E+00  0.00000000E+00  0.00000000E+00
  0.00000000E+00  0.00000000E+00  0.00000000E+00
  0.00000000E+00  0.00000000E+00  0.00000000E+00
  0.00000000E+00  0.00000000E+00  0.00000000E+00
  0.00000000E+00  0.00000000E+00  0.00000000E+00
  0.00000000E+00  0.00000000E+00  0.00000000E+00
  0.00000000E+00  0.00000000E+00  0.00000000E+00
  0.00000000E+00  0.00000000E+00  0.00000000E+00
  0.00000000E+00  0.00000000E+00  0.00000000E+00
  0.00000000E+00  0.00000000E+00  0.00000000E+00
  0.00000000E+00  0.00000000E+00  0.00000000E+00
  0.00000000E+00  0.00000000E+00  0.00000000E+00
  0.00000000E+00  0.00000000E+00  0.00000000E+00
  0.00000000E+00  0.00000000E+00  0.00000000E+00
  0.00000000E+00  0.00000000E+00  0.00000000E+00
  0.00000000E+00  0.00000000E+00  0.00000000E+00
  0.00000000E+00  0.00000000E+00  0.00000000E+00
  0.00000000E+00  0.00000000E+00  0.00000000E+00
  0.00000000E+00  0.00000000E+00  0.00000000E+00
  0.00000000E+00  0.00000000E+00  0.00000000E+00
