K Cu48 H100 C O50                       
   1.00000000000000     
    10.2239000000000004    0.0000000000000000    0.0000000000000000
     0.0000000000000000   10.2239000000000004    0.0000000000000000
     0.0000000000000000    0.0000000000000000   37.6114999999999995
   Cu   O    H    K    C 
    48    50   100     1     1
Selective dynamics
Direct
  0.7579300000000018  0.7579300000000018  0.0480500000000035   F   F   F
  0.0079300000000018  0.7579300000000018  0.0480500000000035   F   F   F
  0.2579300000000018  0.7579300000000018  0.0480500000000035   F   F   F
  0.5079300000000018  0.7579300000000018  0.0480500000000035   F   F   F
  0.7579300000000018  0.0079300000000018  0.0480500000000035   F   F   F
  0.0079300000000018  0.0079300000000018  0.0480500000000035   F   F   F
  0.2579300000000018  0.0079300000000018  0.0480500000000035   F   F   F
  0.5079300000000018  0.0079300000000018  0.0480500000000035   F   F   F
  0.7579300000000018  0.2579300000000018  0.0480500000000035   F   F   F
  0.0079300000000018  0.2579300000000018  0.0480500000000035   F   F   F
  0.2579300000000018  0.2579300000000018  0.0480500000000035   F   F   F
  0.5079300000000018  0.2579300000000018  0.0480500000000035   F   F   F
  0.7579300000000018  0.5079300000000018  0.0480500000000035   F   F   F
  0.0079300000000018  0.5079300000000018  0.0480500000000035   F   F   F
  0.2579300000000018  0.5079300000000018  0.0480500000000035   F   F   F
  0.5079300000000018  0.5079300000000018  0.0480500000000035   F   F   F
  0.7576783386963275  0.7535853840447415  0.1430391406186067   T   T   T
  0.8837847397966182  0.8799469820208650  0.0951984578124920   T   T   T
  0.0109006004088443  0.7591411735623046  0.1422089583686994   T   T   T
  0.1334789008128149  0.8827283242055399  0.0944512911503998   T   T   T
  0.2580170997247822  0.7570797427788061  0.1429217316609951   T   T   T
  0.3812610775273217  0.8832652113793343  0.0953961455493013   T   T   T
  0.5048046773844524  0.7588358325222438  0.1417404065148920   T   T   T
  0.6333797620541375  0.8796056321839669  0.0946153084481917   T   T   T
  0.7579908794564852  0.0023370431134570  0.1398566591539864   T   T   T
  0.8824917291015674  0.1341403609055128  0.0947130994967069   T   T   T
  0.0086221543511443  0.0086075576112306  0.1414561887971261   T   T   T
  0.1343367052616644  0.1318756559923882  0.0952068072208288   T   T   T
  0.2575029597344706  0.0072213485874233  0.1426429085676739   T   T   T
  0.3834339555597679  0.1323212112502201  0.0943225063303786   T   T   T
  0.5084233221674130  0.0064987389144467  0.1411930468399253   T   T   T
  0.6338718614949020  0.1341411221125303  0.0953484539815022   T   T   T
  0.7616140105585955  0.2530721777376920  0.1453766618680352   T   T   T
  0.8809022536562277  0.3819554144783567  0.0966495280440204   T   T   T
  0.0128013895244410  0.2565533180020810  0.1414463953432297   T   T   T
  0.1333618301264118  0.3826851869930848  0.0940112454711758   T   T   T
  0.2582791794104797  0.2592715957012707  0.1419127947227908   T   T   T
  0.3835316997968458  0.3826195432389923  0.0950476143428017   T   T   T
  0.5072534319218059  0.2578244716938072  0.1412956170549889   T   T   T
  0.6377999643205485  0.3832367246595771  0.0962270242361831   T   T   T
  0.7597914708472361  0.5084201037928127  0.1459616626163687   T   T   T
  0.8818200259590740  0.6299033954875647  0.0949165906567559   T   T   T
  0.0140235121104914  0.5063782686145758  0.1413414763495198   T   T   T
  0.1330499577846207  0.6345438175023287  0.0950841230072661   T   T   T
  0.2583371233343255  0.5105310346382256  0.1412928295507362   T   T   T
  0.3830013403425681  0.6340069504432029  0.0943021720756057   T   T   T
  0.5054818502002465  0.5089610759509119  0.1413738765289847   T   T   T
  0.6341386122099617  0.6309070600156632  0.0955413219786897   T   T   T
  0.5647109306723616  0.5594292289814867  0.2461555508386259   T   T   T
  0.6809019605755930  0.2783142308589436  0.4575884724059003   T   T   T
  0.2914965053777913  0.0708199860539650  0.3301948502142239   T   T   T
  0.8878384470543045  0.5540805892740933  0.5356131885916504   T   T   T
  0.2778383640134582  0.4220931181012667  0.4139323073781872   T   T   T
  0.5305996199025719  0.9512038327255418  0.4445780749987422   T   T   T
  0.3686866010915886  0.4144173203975423  0.2166739777540055   T   T   T
  0.3250169496686120  0.8376629459669342  0.4182578301436006   T   T   T
  0.7583910163324297  0.2114200521921328  0.2003527719150712   T   T   T
  0.0811564405420427  0.7233167514711809  0.2779912682765306   T   T   T
  0.4204755895226292  0.9420994764939755  0.2247355254261379   T   T   T
  0.1261842867611968  0.1829385206311908  0.2272502921850240   T   T   T
  0.6396168497266550  0.7057185459325205  0.4509005435676091   T   T   T
  0.0411637415484021  0.9705232640729422  0.2622434126078975   T   T   T
  0.6612211389087355  0.1121487675845740  0.4012445052583822   T   T   T
  0.6372623940700152  0.5515639444792300  0.5579532799877918   T   T   T
  0.4031359813955643  0.8698537814341751  0.2942920498609375   T   T   T
  0.2997049113599382  0.6438356017296447  0.3169589825849056   T   T   T
  0.1387367376761617  0.9650037270638889  0.3809817583489137   T   T   T
  0.6269898349740789  0.5587615633538846  0.3523622581873574   T   T   T
  0.8958635935470165  0.0968100185074593  0.3118101980978172   T   T   T
  0.9204728366435445  0.3482193801111260  0.4296756010346251   T   T   T
  0.6151638973149033  0.3084269836452092  0.5750263507804976   T   T   T
  0.8785121772346984  0.7096613564310684  0.4742478096845330   T   T   T
  0.5177809265886930  0.1915568267797086  0.3435812288736461   T   T   T
  0.2333458643777406  0.7576425836039744  0.4822712247046597   T   T   T
  0.8440763541149964  0.9611408971926677  0.2166256584594194   T   T   T
  0.1478151772473086  0.5584664863150711  0.2228951159167110   T   T   T
 -0.0440334970074770  0.3950160221144629  0.2371419022828609   T   T   T
  0.4577006599189278  0.4235046922015053  0.3018848327952118   T   T   T
  0.6415599821497402  0.8060399282924413  0.3261026170367670   T   T   T
  0.6673468404996279  0.1565276038133596  0.5221021144597853   T   T   T
  0.6515781957885111  0.0921094755661526  0.2856361881465566   T   T   T
  0.0903359613494996  0.5876980490583460  0.4414518976730751   T   T   T
  0.2630548141819024  0.1944068148692699  0.4901793034102517   T   T   T
  0.4319392922838448  0.3706993175195911  0.4660502417643308   T   T   T
  0.0761505236198966  0.1132390784430463  0.4378030444855298   T   T   T
  0.8779418109482747  0.4920965695445810  0.3657600443911047   T   T   T
  0.0155688465291973  0.3187802785465131  0.5139196921644213   T   T   T
 -0.0095904195013806  0.7366740143763143  0.3850169301065763   T   T   T
  0.5133553297141444  0.1903965432168176  0.2287699800534427   T   T   T
  0.4613502199621144  0.6072922646374832  0.4994723807773343   T   T   T
  0.8117708746162483  0.9365273353518863  0.3665352691769086   T   T   T
  0.0173321570230750  0.9275114607062437  0.4859704814883200   T   T   T
  0.9841867559498624  0.3489015789926008  0.3095915819572626   T   T   T
  0.3951392768126758  0.6248440878265862  0.3830486292720462   T   T   T
  0.2336152445633531  0.2797735422304233  0.2887150166060670   T   T   T
  0.4463393895098694  0.0089174652400189  0.5082333320426620   T   T   T
  0.9056586879337701  0.0794032882714168  0.5375656261258586   T   T   T
  0.7628565667206046  0.5156905711667275  0.2014055893401370   T   T   T
  0.4896411263612442  0.5260589096618097  0.2319643077574075   T   T   T
  0.6409807145465463  0.5343500116731923  0.2306888238827847   T   T   T
  0.6760391238674704  0.2109076584266352  0.4385154896804210   T   T   T
  0.6845730899158988  0.2316651245703466  0.4810780823559719   T   T   T
  0.2535436326549880  0.1403591235959557  0.3145878275131369   T   T   T
  0.2244367241925275  0.0385965257136804  0.3474424628406709   T   T   T
  0.8899252952572891  0.6095836757991363  0.5140888876863166   T   T   T
  0.9348776757978691  0.4727707504461091  0.5294565462081877   T   T   T
  0.2516420304129764  0.3425753590408261  0.4017170248424868   T   T   T
  0.3434255715227179  0.3963092582139787  0.4335037289888018   T   T   T
  0.4512375655785320  0.9163449194217670  0.4317703432546242   T   T   T
  0.5749685416265077  0.0141446561181889  0.4281064791699080   T   T   T
  0.2832450310530366  0.4610644358146848  0.2206957515340511   T   T   T
  0.3754388549602437  0.4080238468624634  0.1902784788687507   T   T   T
  0.2597931552248887  0.8854414934217757  0.4032929353857098   T   T   T
  0.3540390581893971  0.7576414564484840  0.4048539394303420   T   T   T
  0.6657749324706791  0.2098654802110571  0.2086801371960931   T   T   T
  0.7933067774145588  0.1225331296835828  0.2059555903301814   T   T   T
  0.1034789532458975  0.6712707054010678  0.2564928621639804   T   T   T
  0.1471749765047424  0.6950648911819582  0.2956012066013898   T   T   T
  0.3681405258020333  0.9070644790318396  0.2050092917663264   T   T   T
  0.3845412696771739  0.9106240861100841  0.2478565549861698   T   T   T
  0.1043990872911219  0.0945913208051448  0.2370612839923942   T   T   T
  0.1543534764192965  0.1703617344241546  0.2024062101178483   T   T   T
  0.5772476455571836  0.6683672552487522  0.4685142633336103   T   T   T
  0.6099360218776306  0.7973961293320040  0.4476413391929676   T   T   T
 -0.0058438838929294  0.0111470894309230  0.2828091772694182   T   T   T
  0.0648734897521352  0.8774432139819985  0.2691145301877945   T   T   T
  0.7253758689368086  0.0497938729721977  0.3903559211037565   T   T   T
  0.6102470882877729  0.1498075209949120  0.3811733979007583   T   T   T
  0.7298850608230992  0.5548167640450686  0.5490103317276686   T   T   T
  0.5793756215356117  0.5771113321575012  0.5382454532411911   T   T   T
  0.3561130401602080  0.9419901289714656  0.3069460055731726   T   T   T
  0.3588074864547915  0.7860142075542242  0.3013105133870901   T   T   T
  0.3241435920256124  0.6421608287548635  0.3427724544491997   T   T   T
  0.3493402910224939  0.5679850728326170  0.3076584104637171   T   T   T
  0.0795590921586836  0.8889333266007065  0.3779894004684563   T   T   T
  0.1030186807562005  0.0223931198594410  0.4004626161311367   T   T   T
  0.7177746235602415  0.5267425123355091  0.3580951982066055   T   T   T
  0.5866137842884906  0.4979744639983183  0.3354558463659361   T   T   T
  0.8077789691488720  0.1008425154285179  0.2998637276053237   T   T   T
  0.8801647560546049  0.0424087796870216  0.3334260473019367   T   T   T
  0.8352868746560203  0.3312354425411621  0.4420105639867515   T   T   T
 -0.0324460715993143  0.4081852946616205  0.4455139505205562   T   T   T
  0.6188224594163424  0.4066309398021810  0.5689428498009724   T   T   T
  0.5364932600186043  0.2945292923669418  0.5889627095373797   T   T   T
  0.7845368144787210  0.7077217001520760  0.4649817764923320   T   T   T
  0.9307538086359237  0.6538234981022223  0.4585108290374681   T   T   T
  0.5051638478745236  0.2782667149488868  0.3325746145664883   T   T   T
  0.4307067000912272  0.1462880930226071  0.3418949598078183   T   T   T
  0.1638397390632471  0.8198226434827856  0.4897364086455731   T   T   T
  0.2673913266249442  0.7945430629076619  0.4594321076352424   T   T   T
  0.9236845224177390  0.9621520469877410  0.2327615110216339   T   T   T
  0.8751644482836907  0.9295725659754089  0.1931854511750191   T   T   T
  0.0721046984866167  0.4950083317260771  0.2262339978652838   T   T   T
  0.1431024890094978  0.5897278428872397  0.1979581651266484   T   T   T
  0.8768508654666958  0.4206225756965792  0.2228005101422792   T   T   T
 -0.0117543588575349  0.3094712507047416  0.2285827353629544   T   T   T
  0.3809459228847266  0.3714081462815262  0.2934557482480888   T   T   T
  0.5064487220181803  0.4571151946675274  0.2805918584507777   T   T   T
  0.5520398550101663  0.8368180380919997  0.3202632333102888   T   T   T
  0.6330650495301113  0.7145884432054700  0.3351529618874554   T   T   T
  0.5925354158822624  0.0950960972375033  0.5200936043537387   T   T   T
  0.6428550513387284  0.2187557543899131  0.5425846079037873   T   T   T
  0.6027280130415968  0.1192763350496471  0.3072918282270066   T   T   T
  0.6093911590809989  0.1424496140916169  0.2661678400482330   T   T   T
  0.1427624953974219  0.6392714033460113  0.4590644687693122   T   T   T
  0.1525420883360598  0.5236468518172597  0.4309934756909849   T   T   T
  0.3153431425478848  0.1187165706351398  0.4988440546984737   T   T   T
  0.2062678943974925  0.1620445033521206  0.4706934452430785   T   T   T
  0.5230223136785548  0.3370742091555911  0.4619867014436606   T   T   T
  0.3773158630089762  0.2997967455569870  0.4773686441676042   T   T   T
  0.0402964796509603  0.0471676347570498  0.4551837679934602   T   T   T
  0.0141103833053368  0.1877653943581915  0.4363225607237802   T   T   T
  0.9177561511593137  0.4420241318221926  0.3456895466477149   T   T   T
  0.8912713500716074  0.4388620263541103  0.3876641033192852   T   T   T
  0.1085237597310085  0.2967461026110993  0.5117376887422698   T   T   T
  0.9766070675331977  0.2390006822040867  0.5242963700995739   T   T   T
  0.0301281198086049  0.6959002240391479  0.4064862387454873   T   T   T
  0.9537124990904348  0.6596650073203842  0.3724801760807999   T   T   T
  0.4656524266964214  0.1070068518929268  0.2241386013494430   T   T   T
  0.4504340112904763  0.2638395658456397  0.2269122766690800   T   T   T
  0.4428929234552558  0.5189765331006021  0.4895132634880826   T   T   T
  0.3780424197569112  0.6559038828274197  0.4986120390741905   T   T   T
  0.8666899322189419  0.8678840207381743  0.3776504671027610   T   T   T
  0.7438887937897948  0.8878198584462530  0.3522513019016928   T   T   T
  0.9564985536584291  0.8523457353523981  0.4807786613804156   T   T   T
  0.9789505113441415  0.9742394731332951  0.5067838363025324   T   T   T
  0.9495808738122027  0.2577591399501147  0.3124274320030582   T   T   T
  0.9576775485871258  0.3760247093008578  0.2851718908431777   T   T   T
  0.3551906133432342  0.5441107337472816  0.3934940316368760   T   T   T
  0.4885420098676083  0.6041301298408843  0.3782268017326029   T   T   T
  0.1495029539185101  0.3166520795533346  0.2980347631223597   T   T   T
  0.2114491366059620  0.2504351076463495  0.2641270413782700   T   T   T
  0.4793253327429713  0.9850100180261083  0.4835152441679504   T   T   T
  0.4249883178170163  0.9265780804748155  0.5198850228002169   T   T   T
  0.8099092968686712  0.0993857321295500  0.5327570588288062   T   T   T
  0.9118869538417651  0.0574461819738593  0.5626601674438469   T   T   T
  0.7495590566232668  0.7190440820312552  0.1955149957226895   T   T   T
  0.9153216045341064  0.6511786414744175  0.1983553752910732   T   T   T
  0.6478049636861349  0.8343298719149622  0.2530954509837052   T   T   T
  0.8130966994987650  0.6313351863119436  0.1907281401544552   T   T   T
 
  0.00000000E+00  0.00000000E+00  0.00000000E+00
  0.00000000E+00  0.00000000E+00  0.00000000E+00
  0.00000000E+00  0.00000000E+00  0.00000000E+00
  0.00000000E+00  0.00000000E+00  0.00000000E+00
  0.00000000E+00  0.00000000E+00  0.00000000E+00
  0.00000000E+00  0.00000000E+00  0.00000000E+00
  0.00000000E+00  0.00000000E+00  0.00000000E+00
  0.00000000E+00  0.00000000E+00  0.00000000E+00
  0.00000000E+00  0.00000000E+00  0.00000000E+00
  0.00000000E+00  0.00000000E+00  0.00000000E+00
  0.00000000E+00  0.00000000E+00  0.00000000E+00
  0.00000000E+00  0.00000000E+00  0.00000000E+00
  0.00000000E+00  0.00000000E+00  0.00000000E+00
  0.00000000E+00  0.00000000E+00  0.00000000E+00
  0.00000000E+00  0.00000000E+00  0.00000000E+00
  0.00000000E+00  0.00000000E+00  0.00000000E+00
  0.00000000E+00  0.00000000E+00  0.00000000E+00
  0.00000000E+00  0.00000000E+00  0.00000000E+00
  0.00000000E+00  0.00000000E+00  0.00000000E+00
  0.00000000E+00  0.00000000E+00  0.00000000E+00
  0.00000000E+00  0.00000000E+00  0.00000000E+00
  0.00000000E+00  0.00000000E+00  0.00000000E+00
  0.00000000E+00  0.00000000E+00  0.00000000E+00
  0.00000000E+00  0.00000000E+00  0.00000000E+00
  0.00000000E+00  0.00000000E+00  0.00000000E+00
  0.00000000E+00  0.00000000E+00  0.00000000E+00
  0.00000000E+00  0.00000000E+00  0.00000000E+00
  0.00000000E+00  0.00000000E+00  0.00000000E+00
  0.00000000E+00  0.00000000E+00  0.00000000E+00
  0.00000000E+00  0.00000000E+00  0.00000000E+00
  0.00000000E+00  0.00000000E+00  0.00000000E+00
  0.00000000E+00  0.00000000E+00  0.00000000E+00
  0.00000000E+00  0.00000000E+00  0.00000000E+00
  0.00000000E+00  0.00000000E+00  0.00000000E+00
  0.00000000E+00  0.00000000E+00  0.00000000E+00
  0.00000000E+00  0.00000000E+00  0.00000000E+00
  0.00000000E+00  0.00000000E+00  0.00000000E+00
  0.00000000E+00  0.00000000E+00  0.00000000E+00
  0.00000000E+00  0.00000000E+00  0.00000000E+00
  0.00000000E+00  0.00000000E+00  0.00000000E+00
  0.00000000E+00  0.00000000E+00  0.00000000E+00
  0.00000000E+00  0.00000000E+00  0.00000000E+00
  0.00000000E+00  0.00000000E+00  0.00000000E+00
  0.00000000E+00  0.00000000E+00  0.00000000E+00
  0.00000000E+00  0.00000000E+00  0.00000000E+00
  0.00000000E+00  0.00000000E+00  0.00000000E+00
  0.00000000E+00  0.00000000E+00  0.00000000E+00
  0.00000000E+00  0.00000000E+00  0.00000000E+00
  0.00000000E+00  0.00000000E+00  0.00000000E+00
  0.00000000E+00  0.00000000E+00  0.00000000E+00
  0.00000000E+00  0.00000000E+00  0.00000000E+00
  0.00000000E+00  0.00000000E+00  0.00000000E+00
  0.00000000E+00  0.00000000E+00  0.00000000E+00
  0.00000000E+00  0.00000000E+00  0.00000000E+00
  0.00000000E+00  0.00000000E+00  0.00000000E+00
  0.00000000E+00  0.00000000E+00  0.00000000E+00
  0.00000000E+00  0.00000000E+00  0.00000000E+00
  0.00000000E+00  0.00000000E+00  0.00000000E+00
  0.00000000E+00  0.00000000E+00  0.00000000E+00
  0.00000000E+00  0.00000000E+00  0.00000000E+00
  0.00000000E+00  0.00000000E+00  0.00000000E+00
  0.00000000E+00  0.00000000E+00  0.00000000E+00
  0.00000000E+00  0.00000000E+00  0.00000000E+00
  0.00000000E+00  0.00000000E+00  0.00000000E+00
  0.00000000E+00  0.00000000E+00  0.00000000E+00
  0.00000000E+00  0.00000000E+00  0.00000000E+00
  0.00000000E+00  0.00000000E+00  0.00000000E+00
  0.00000000E+00  0.00000000E+00  0.00000000E+00
  0.00000000E+00  0.00000000E+00  0.00000000E+00
  0.00000000E+00  0.00000000E+00  0.00000000E+00
  0.00000000E+00  0.00000000E+00  0.00000000E+00
  0.00000000E+00  0.00000000E+00  0.00000000E+00
  0.00000000E+00  0.00000000E+00  0.00000000E+00
  0.00000000E+00  0.00000000E+00  0.00000000E+00
  0.00000000E+00  0.00000000E+00  0.00000000E+00
  0.00000000E+00  0.00000000E+00  0.00000000E+00
  0.00000000E+00  0.00000000E+00  0.00000000E+00
  0.00000000E+00  0.00000000E+00  0.00000000E+00
  0.00000000E+00  0.00000000E+00  0.00000000E+00
  0.00000000E+00  0.00000000E+00  0.00000000E+00
  0.00000000E+00  0.00000000E+00  0.00000000E+00
  0.00000000E+00  0.00000000E+00  0.00000000E+00
  0.00000000E+00  0.00000000E+00  0.00000000E+00
  0.00000000E+00  0.00000000E+00  0.00000000E+00
  0.00000000E+00  0.00000000E+00  0.00000000E+00
  0.00000000E+00  0.00000000E+00  0.00000000E+00
  0.00000000E+00  0.00000000E+00  0.00000000E+00
  0.00000000E+00  0.00000000E+00  0.00000000E+00
  0.00000000E+00  0.00000000E+00  0.00000000E+00
  0.00000000E+00  0.00000000E+00  0.00000000E+00
  0.00000000E+00  0.00000000E+00  0.00000000E+00
  0.00000000E+00  0.00000000E+00  0.00000000E+00
  0.00000000E+00  0.00000000E+00  0.00000000E+00
  0.00000000E+00  0.00000000E+00  0.00000000E+00
  0.00000000E+00  0.00000000E+00  0.00000000E+00
  0.00000000E+00  0.00000000E+00  0.00000000E+00
  0.00000000E+00  0.00000000E+00  0.00000000E+00
  0.00000000E+00  0.00000000E+00  0.00000000E+00
  0.00000000E+00  0.00000000E+00  0.00000000E+00
  0.00000000E+00  0.00000000E+00  0.00000000E+00
  0.00000000E+00  0.00000000E+00  0.00000000E+00
  0.00000000E+00  0.00000000E+00  0.00000000E+00
  0.00000000E+00  0.00000000E+00  0.00000000E+00
  0.00000000E+00  0.00000000E+00  0.00000000E+00
  0.00000000E+00  0.00000000E+00  0.00000000E+00
  0.00000000E+00  0.00000000E+00  0.00000000E+00
  0.00000000E+00  0.00000000E+00  0.00000000E+00
  0.00000000E+00  0.00000000E+00  0.00000000E+00
  0.00000000E+00  0.00000000E+00  0.00000000E+00
  0.00000000E+00  0.00000000E+00  0.00000000E+00
  0.00000000E+00  0.00000000E+00  0.00000000E+00
  0.00000000E+00  0.00000000E+00  0.00000000E+00
  0.00000000E+00  0.00000000E+00  0.00000000E+00
  0.00000000E+00  0.00000000E+00  0.00000000E+00
  0.00000000E+00  0.00000000E+00  0.00000000E+00
  0.00000000E+00  0.00000000E+00  0.00000000E+00
  0.00000000E+00  0.00000000E+00  0.00000000E+00
  0.00000000E+00  0.00000000E+00  0.00000000E+00
  0.00000000E+00  0.00000000E+00  0.00000000E+00
  0.00000000E+00  0.00000000E+00  0.00000000E+00
  0.00000000E+00  0.00000000E+00  0.00000000E+00
  0.00000000E+00  0.00000000E+00  0.00000000E+00
  0.00000000E+00  0.00000000E+00  0.00000000E+00
  0.00000000E+00  0.00000000E+00  0.00000000E+00
  0.00000000E+00  0.00000000E+00  0.00000000E+00
  0.00000000E+00  0.00000000E+00  0.00000000E+00
  0.00000000E+00  0.00000000E+00  0.00000000E+00
  0.00000000E+00  0.00000000E+00  0.00000000E+00
  0.00000000E+00  0.00000000E+00  0.00000000E+00
  0.00000000E+00  0.00000000E+00  0.00000000E+00
  0.00000000E+00  0.00000000E+00  0.00000000E+00
  0.00000000E+00  0.00000000E+00  0.00000000E+00
  0.00000000E+00  0.00000000E+00  0.00000000E+00
  0.00000000E+00  0.00000000E+00  0.00000000E+00
  0.00000000E+00  0.00000000E+00  0.00000000E+00
  0.00000000E+00  0.00000000E+00  0.00000000E+00
  0.00000000E+00  0.00000000E+00  0.00000000E+00
  0.00000000E+00  0.00000000E+00  0.00000000E+00
  0.00000000E+00  0.00000000E+00  0.00000000E+00
  0.00000000E+00  0.00000000E+00  0.00000000E+00
  0.00000000E+00  0.00000000E+00  0.00000000E+00
  0.00000000E+00  0.00000000E+00  0.00000000E+00
  0.00000000E+00  0.00000000E+00  0.00000000E+00
  0.00000000E+00  0.00000000E+00  0.00000000E+00
  0.00000000E+00  0.00000000E+00  0.00000000E+00
  0.00000000E+00  0.00000000E+00  0.00000000E+00
  0.00000000E+00  0.00000000E+00  0.00000000E+00
  0.00000000E+00  0.00000000E+00  0.00000000E+00
  0.00000000E+00  0.00000000E+00  0.00000000E+00
  0.00000000E+00  0.00000000E+00  0.00000000E+00
  0.00000000E+00  0.00000000E+00  0.00000000E+00
  0.00000000E+00  0.00000000E+00  0.00000000E+00
  0.00000000E+00  0.00000000E+00  0.00000000E+00
  0.00000000E+00  0.00000000E+00  0.00000000E+00
  0.00000000E+00  0.00000000E+00  0.00000000E+00
  0.00000000E+00  0.00000000E+00  0.00000000E+00
  0.00000000E+00  0.00000000E+00  0.00000000E+00
  0.00000000E+00  0.00000000E+00  0.00000000E+00
  0.00000000E+00  0.00000000E+00  0.00000000E+00
  0.00000000E+00  0.00000000E+00  0.00000000E+00
  0.00000000E+00  0.00000000E+00  0.00000000E+00
  0.00000000E+00  0.00000000E+00  0.00000000E+00
  0.00000000E+00  0.00000000E+00  0.00000000E+00
  0.00000000E+00  0.00000000E+00  0.00000000E+00
  0.00000000E+00  0.00000000E+00  0.00000000E+00
  0.00000000E+00  0.00000000E+00  0.00000000E+00
  0.00000000E+00  0.00000000E+00  0.00000000E+00
  0.00000000E+00  0.00000000E+00  0.00000000E+00
  0.00000000E+00  0.00000000E+00  0.00000000E+00
  0.00000000E+00  0.00000000E+00  0.00000000E+00
  0.00000000E+00  0.00000000E+00  0.00000000E+00
  0.00000000E+00  0.00000000E+00  0.00000000E+00
  0.00000000E+00  0.00000000E+00  0.00000000E+00
  0.00000000E+00  0.00000000E+00  0.00000000E+00
  0.00000000E+00  0.00000000E+00  0.00000000E+00
  0.00000000E+00  0.00000000E+00  0.00000000E+00
  0.00000000E+00  0.00000000E+00  0.00000000E+00
  0.00000000E+00  0.00000000E+00  0.00000000E+00
  0.00000000E+00  0.00000000E+00  0.00000000E+00
  0.00000000E+00  0.00000000E+00  0.00000000E+00
  0.00000000E+00  0.00000000E+00  0.00000000E+00
  0.00000000E+00  0.00000000E+00  0.00000000E+00
  0.00000000E+00  0.00000000E+00  0.00000000E+00
  0.00000000E+00  0.00000000E+00  0.00000000E+00
  0.00000000E+00  0.00000000E+00  0.00000000E+00
  0.00000000E+00  0.00000000E+00  0.00000000E+00
  0.00000000E+00  0.00000000E+00  0.00000000E+00
  0.00000000E+00  0.00000000E+00  0.00000000E+00
  0.00000000E+00  0.00000000E+00  0.00000000E+00
  0.00000000E+00  0.00000000E+00  0.00000000E+00
  0.00000000E+00  0.00000000E+00  0.00000000E+00
  0.00000000E+00  0.00000000E+00  0.00000000E+00
  0.00000000E+00  0.00000000E+00  0.00000000E+00
  0.00000000E+00  0.00000000E+00  0.00000000E+00
  0.00000000E+00  0.00000000E+00  0.00000000E+00
  0.00000000E+00  0.00000000E+00  0.00000000E+00
  0.00000000E+00  0.00000000E+00  0.00000000E+00
  0.00000000E+00  0.00000000E+00  0.00000000E+00
  0.00000000E+00  0.00000000E+00  0.00000000E+00
  0.00000000E+00  0.00000000E+00  0.00000000E+00
