K Cu48 H99 N O49                        
   1.00000000000000     
    10.2239000000000004    0.0000000000000000    0.0000000000000000
     0.0000000000000000   10.2239000000000004    0.0000000000000000
     0.0000000000000000    0.0000000000000000   37.6114999999999995
   Cu   O    H    K    N 
    48    49    99     1     1
Selective dynamics
Direct
  0.7579300000000018  0.7579300000000018  0.0480500000000035   F   F   F
  0.0079300000000018  0.7579300000000018  0.0480500000000035   F   F   F
  0.2579300000000018  0.7579300000000018  0.0480500000000035   F   F   F
  0.5079300000000018  0.7579300000000018  0.0480500000000035   F   F   F
  0.7579300000000018  0.0079300000000018  0.0480500000000035   F   F   F
  0.0079300000000018  0.0079300000000018  0.0480500000000035   F   F   F
  0.2579300000000018  0.0079300000000018  0.0480500000000035   F   F   F
  0.5079300000000018  0.0079300000000018  0.0480500000000035   F   F   F
  0.7579300000000018  0.2579300000000018  0.0480500000000035   F   F   F
  0.0079300000000018  0.2579300000000018  0.0480500000000035   F   F   F
  0.2579300000000018  0.2579300000000018  0.0480500000000035   F   F   F
  0.5079300000000018  0.2579300000000018  0.0480500000000035   F   F   F
  0.7579300000000018  0.5079300000000018  0.0480500000000035   F   F   F
  0.0079300000000018  0.5079300000000018  0.0480500000000035   F   F   F
  0.2579300000000018  0.5079300000000018  0.0480500000000035   F   F   F
  0.5079300000000018  0.5079300000000018  0.0480500000000035   F   F   F
  0.7583762028442553  0.7577057913294325  0.1444326230649792   T   T   T
  0.8796551700656194  0.8805666590885500  0.0952484031909669   T   T   T
  0.0091363962267347  0.7580409758220475  0.1415794561380821   T   T   T
  0.1326274830423748  0.8832616347981974  0.0953757381311581   T   T   T
  0.2559187274207549  0.7568640255083433  0.1413722963276362   T   T   T
  0.3858609794856896  0.8796923814904223  0.0950815230571634   T   T   T
  0.5066446065861092  0.7576301864414311  0.1445084718416652   T   T   T
  0.6333040032357461  0.8814744908089291  0.0961194589895379   T   T   T
  0.7582050848010488  0.0088218827285819  0.1422187878437055   T   T   T
  0.8845702732449167  0.1322277046361869  0.0956887962506645   T   T   T
  0.0072215263113488  0.0064138555924448  0.1424624297756958   T   T   T
  0.1326656993439592  0.1321922310156631  0.0944732516462050   T   T   T
  0.2593418440221237  0.0056468301690426  0.1420371038139365   T   T   T
  0.3826713290304701  0.1321550990365756  0.0953773394674045   T   T   T
  0.5069386589347270  0.0083701721089817  0.1419376065129903   T   T   T
  0.6330552241457292  0.1321534832944767  0.0943762523018611   T   T   T
  0.7580573453965941  0.2563833116332624  0.1414089868395936   T   T   T
  0.8813802471102249  0.3859947417237978  0.0950419866605869   T   T   T
  0.0071578357512560  0.2590753008516475  0.1422336814447494   T   T   T
  0.1330195337396489  0.3814781420600868  0.0956101468286484   T   T   T
  0.2605961349736715  0.2581862925066897  0.1416152294941376   T   T   T
  0.3859341433566659  0.3857364030195400  0.0949759782950000   T   T   T
  0.5091709510296386  0.2560001509040097  0.1416581443757277   T   T   T
  0.6326262272288449  0.3839270806901059  0.0958126424943560   T   T   T
  0.7591309483861302  0.5062989172542309  0.1438637026385711   T   T   T
  0.8821953352453659  0.6328852625794240  0.0958046483682566   T   T   T
  0.0095633287022262  0.5081356232985749  0.1419471088276285   T   T   T
  0.1332344571377665  0.6327083404526417  0.0941903085166528   T   T   T
  0.2582677361502965  0.5079024778340515  0.1417593944237642   T   T   T
  0.3836112010614655  0.6327747336470833  0.0958205377989597   T   T   T
  0.5074101281586536  0.5064748509066453  0.1443365615809971   T   T   T
  0.6329448827773354  0.6327332947184346  0.0926453759693299   T   T   T
  0.5994332182369675  0.9644657324765583  0.4401903979496916   T   T   T
  0.3321259298434415  0.3227260089000838  0.2891006333446791   T   T   T
  0.0357479288842187  0.0906624077156391  0.5119239735375030   T   T   T
  0.4055451877030153  0.3089552957040970  0.4469815420392810   T   T   T
  0.5462590023322313  0.6957760045285168  0.3860406993284136   T   T   T
  0.0976140649609979  0.4815567680308990  0.3133740841885307   T   T   T
  0.3332146629708245  0.2876316773315888  0.3779147556843641   T   T   T
  0.7336176627733986  0.3553330941783623  0.2239820741469987   T   T   T
  0.1766509758459211  0.3686196197217573  0.2176985723104346   T   T   T
  0.7766494707286951  0.0840377517627275  0.2372030924881179   T   T   T
  0.5723374382283576  0.5498351125837077  0.5282658578304297   T   T   T
  0.8053025682280759  0.8894969656426590  0.3178467362293658   T   T   T
  0.6104089321258614  0.9530167281286196  0.3664983544732867   T   T   T
  0.7984211541647227  0.8025349039555759  0.4581977528871672   T   T   T
  0.9592605007973261  0.0804133528225966  0.2934703265166856   T   T   T
  0.2530424005254695  0.8999690579920404  0.3089476081823655   T   T   T
  0.2302414329742478  0.0511416272320194  0.3703285692782248   T   T   T
  0.7279844735128410  0.3223402891302107  0.3607092354190397   T   T   T
  0.5443166654616496  0.6260349875195850  0.2816816137596259   T   T   T
  0.0949858340196743  0.3775468444365279  0.5337231723128072   T   T   T
  0.5655173558607741  0.2929049642621755  0.5457793686683780   T   T   T
  0.1983165504628045  0.6937737874872374  0.4325680986351425   T   T   T
  0.5190076135436184  0.1876494924519907  0.3364603209472892   T   T   T
  0.3980322528455988  0.5610265598028517  0.4726933122240000   T   T   T
  0.1055605891350675  0.8979980426635674  0.2488134682027942   T   T   T
  0.9054583802752810  0.7296929386326602  0.2293238966570841   T   T   T
  0.4707912477243039  0.4157790941228236  0.2366169661935217   T   T   T
  0.6935052398674570  0.5716940990872511  0.3392339406723001   T   T   T
  0.3462959654740365  0.7829689035953373  0.2239342259493012   T   T   T
  0.4657860046885040  0.0102609748198683  0.2804470034675292   T   T   T
  0.6713611336027059  0.3424364137855007  0.4317598796538269   T   T   T
  0.1072073747749256  0.6153380775425011  0.5000926067218836   T   T   T
  0.3405580995280806  0.9206358172454812  0.4281888968353687   T   T   T
  0.9864973300927568  0.0949429793215707  0.4145932366876727   T   T   T
 -0.0190674762831676  0.2510483759166087  0.3496915013222439   T   T   T
  0.6276198493552139  0.0991758005176952  0.5038659128434894   T   T   T
  0.3020588533349113  0.6482655617759429  0.3121493100555520   T   T   T
  0.3782982389385576  0.1449583090132272  0.2211458082115018   T   T   T
  0.8389036654525791  0.1903468984259750  0.4685001077156868   T   T   T
  0.9311171142867739  0.6769634229829831  0.3476616581208223   T   T   T
  0.9419173758233189  0.8365752898253265  0.5188283034411334   T   T   T
  0.3110722436475703  0.5610696506829985  0.3789748339070474   T   T   T
  0.2115880574563098  0.1226497939782301  0.4571353225907618   T   T   T
  0.9627424667697073  0.4766986788425197  0.2493654693372947   T   T   T
  0.9862556795043437  0.8207082066700423  0.4080414357677363   T   T   T
  0.6647624023922551  0.5805561961303611  0.4616590839184992   T   T   T
  0.3139055372403411  0.2858306758913106  0.5711275472114271   T   T   T
  0.8577332224030412  0.4246308346870512  0.5701531883504023   T   T   T
  0.7721642319274447  0.6691894246495241  0.5682033608017798   T   T   T
  0.6710900391459450  0.9027910094574229  0.4473352690308638   T   T   T
  0.5925497583170228  0.0263399190498892  0.4603187098175397   T   T   T
  0.2567195333662535  0.3650239184011544  0.3005139713898441   T   T   T
  0.3899987375817832  0.2883112323578219  0.3077747232558217   T   T   T
  0.9632290768851407  0.1301635583940799  0.4979873459907649   T   T   T
  0.1098635413440827  0.0892841812362205  0.4946393279596025   T   T   T
  0.3365460295929530  0.2467645399043729  0.4551375191247141   T   T   T
  0.3881487298070951  0.3960378811252438  0.4578542493628407   T   T   T
  0.5390841980711462  0.7860475677968762  0.3768624845337845   T   T   T
  0.4592709439736251  0.6530579220252221  0.3848241532883406   T   T   T
  0.1696355116205859  0.5462416334700922  0.3094312657667104   T   T   T
  0.0447936314261631  0.4790764518839619  0.2910703164119169   T   T   T
  0.2806685655757583  0.2040771059429656  0.3753380410863591   T   T   T
  0.3600964489468964  0.2935757532073334  0.4034750176342694   T   T   T
  0.6407405996619885  0.3767115412518513  0.2289625478343106   T   T   T
  0.7428229008795619  0.3702682505598483  0.1980709462180767   T   T   T
  0.2120297323788322  0.2798936784679693  0.2211347578983178   T   T   T
  0.1635230511019451  0.3763760770291579  0.1915266050465131   T   T   T
  0.7569250869316012  0.1742427297256379  0.2298718997469402   T   T   T
  0.8440916472889148  0.0943724332874993  0.2558902989910202   T   T   T
  0.6243304347172455  0.6019984093112023  0.5453339235671585   T   T   T
  0.6230244441610687  0.5579353291109768  0.5056749253563404   T   T   T
  0.8598638711151406  0.8159298450618275  0.3266776300354238   T   T   T
  0.7439820874523834  0.9120016528340443  0.3374903296060296   T   T   T
  0.6195285977560797  0.9742645796385572  0.3921004371336550   T   T   T
  0.5690420030545026  0.0316217487895593  0.3557537539548188   T   T   T
  0.8452729818409648  0.8154514727609696  0.4812540349122711   T   T   T
  0.7560671032394661  0.7139234127962549  0.4590598696252974   T   T   T
  0.9057430545806122  0.0078735007443270  0.3044294854878618   T   T   T
  0.0266095178579591  0.0358848260109200  0.2792554823185487   T   T   T
  0.1878866857442986  0.8984984534467234  0.2891372549081933   T   T   T
  0.3339396648056023  0.9394679409498953  0.2978322751902631   T   T   T
  0.2317403181880661  0.0025787274714232  0.3474906687507368   T   T   T
  0.2757465532739184  0.9951282991783681  0.3878978358090494   T   T   T
  0.7120151671003667  0.3236684417650263  0.3869267728545965   T   T   T
  0.8212458332127195  0.2951103614178936  0.3567665875907012   T   T   T
  0.5330879608120418  0.5512799616022738  0.2654090752187508   T   T   T
  0.6038992596818717  0.5970206880385257  0.3014783108782368   T   T   T
  0.0988456125641528  0.4572891359962033  0.5182606403642159   T   T   T
  0.0782830807866512  0.3003162054722980  0.5189200430313238   T   T   T
  0.5683251857374415  0.3865368359459602  0.5379293328935205   T   T   T
  0.4769771236248811  0.2816934399627444  0.5564545450844668   T   T   T
  0.1175265429078310  0.7401704822485422  0.4235706152051956   T   T   T
  0.2299049041167412  0.6379597002691821  0.4123545190010358   T   T   T
  0.6025802698733873  0.2349162112272818  0.3419876051321082   T   T   T
  0.4545231215506550  0.2230755406034564  0.3544927353990842   T   T   T
  0.4224706475433654  0.5691446676724937  0.4979716250362693   T   T   T
  0.3215260251824703  0.6165730368524700  0.4684865295669571   T   T   T
  0.0332810741752509  0.8373656422487383  0.2419499062438499   T   T   T
  0.1820691614362909  0.8697773869796706  0.2347594239203596   T   T   T
  0.9294456382760923  0.6375223892930042  0.2355556242156300   T   T   T
  0.9025586517151899  0.7308187587475464  0.2031325721378865   T   T   T
  0.4149917372045682  0.4391272355184560  0.2163807139078957   T   T   T
  0.4095892890242991  0.3848934290646829  0.2563237449150538   T   T   T
  0.7026489909727890  0.4781212892446738  0.3468651560416285   T   T   T
  0.6378780418783186  0.6164778616583730  0.3580465872332649   T   T   T
  0.3394036341984091  0.6979757567738675  0.2356363981644258   T   T   T
  0.3579178477442106  0.7622728587053149  0.1983978497794687   T   T   T
  0.4331370037047020  0.0571812571252898  0.2590261965843610   T   T   T
  0.4897137207387182  0.0787126084073939  0.2978270522486585   T   T   T
  0.7344814649724885  0.2891494185189521  0.4462793934872635   T   T   T
  0.5815722575981473  0.3138005848341689  0.4382910180465294   T   T   T
  0.0559887475549251  0.6908460084100200  0.5086053641929892   T   T   T
  0.1257287900526329  0.6336754471251840  0.4748208153749879   T   T   T
  0.4362629459030874  0.9171855673074519  0.4330032777117602   T   T   T
  0.3011098514105005  0.8324002436903625  0.4315632416277147   T   T   T
  0.9913235283647158  0.0005767549588499  0.4081541088630232   T   T   T
 -0.0036140941403477  0.1440924486912654  0.3921027495648740   T   T   T
  0.0347391589340801  0.3270147153281964  0.3430414947609653   T   T   T
 -0.0149779999753504  0.1904712912462287  0.3288132835445026   T   T   T
  0.6381900621830410  0.0277287762604350  0.5206761976581396   T   T   T
  0.5985446542215471  0.1779117901632687  0.5188962073966198   T   T   T
  0.3910530226359811  0.6370064696665539  0.3013824562383024   T   T   T
  0.2834456708214073  0.7459427487817847  0.3117929322209797   T   T   T
  0.3859096407142389  0.1068719032539213  0.1969841388273106   T   T   T
  0.4362193990330487  0.2217093807206806  0.2205234036958398   T   T   T
  0.7670777410621474  0.1398553223859482  0.4800770929110115   T   T   T
  0.8759428158377375  0.1414551989896338  0.4477818268524478   T   T   T
 -0.0049996576475946  0.6142701964395123  0.3376739598096148   T   T   T
  0.8437828205866350  0.6314570503255200  0.3456799292845242   T   T   T
  0.9777830199613385  0.9276829269387364  0.5206081705189607   T   T   T
  0.8954126153120158  0.8132480671575356  0.5407332401318747   T   T   T
  0.3023264872202730  0.5941135456680097  0.3539061025878292   T   T   T
  0.3090064562040475  0.4642034735292908  0.3772893837943877   T   T   T
  0.2625837791390825  0.0438553900190151  0.4492462078848978   T   T   T
  0.1381798555406948  0.1251586668516541  0.4397034017070181   T   T   T
  0.8802320387596956  0.4297252213062915  0.2439425399406415   T   T   T
  0.0339471612035932  0.4295068207982223  0.2364150316337105   T   T   T
  0.9128981406948870  0.8070004029358365  0.4253741480317906   T   T   T
  0.9635672143820465  0.7696106634333870  0.3862876237654464   T   T   T
  0.5729788378682754  0.6015301370184933  0.4558232713521876   T   T   T
  0.6805386928144372  0.4947682722247937  0.4493514349091275   T   T   T
  0.2388930812950865  0.3224548471390939  0.5576309510926212   T   T   T
  0.2956873655198055  0.3103915799727230  0.5955376801225347   T   T   T
  0.9398003057156106  0.3996865276899008  0.5576472890900137   T   T   T
  0.7881347344089104  0.3677159342283743  0.5613392576259709   T   T   T
  0.8138188444761977  0.5789895124882699  0.5692406921695687   T   T   T
  0.7497717187594402  0.6893999859537737  0.5927216648694780   T   T   T
  0.6345378234915761  0.6260620952234155  0.1949226441667571   T   T   T
  0.6628818690409257  0.8540816039694720  0.2516460228870044   T   T   T
  0.6338045780187014  0.6327448884223763  0.1676788677918988   T   T   T
 
  0.00000000E+00  0.00000000E+00  0.00000000E+00
  0.00000000E+00  0.00000000E+00  0.00000000E+00
  0.00000000E+00  0.00000000E+00  0.00000000E+00
  0.00000000E+00  0.00000000E+00  0.00000000E+00
  0.00000000E+00  0.00000000E+00  0.00000000E+00
  0.00000000E+00  0.00000000E+00  0.00000000E+00
  0.00000000E+00  0.00000000E+00  0.00000000E+00
  0.00000000E+00  0.00000000E+00  0.00000000E+00
  0.00000000E+00  0.00000000E+00  0.00000000E+00
  0.00000000E+00  0.00000000E+00  0.00000000E+00
  0.00000000E+00  0.00000000E+00  0.00000000E+00
  0.00000000E+00  0.00000000E+00  0.00000000E+00
  0.00000000E+00  0.00000000E+00  0.00000000E+00
  0.00000000E+00  0.00000000E+00  0.00000000E+00
  0.00000000E+00  0.00000000E+00  0.00000000E+00
  0.00000000E+00  0.00000000E+00  0.00000000E+00
  0.00000000E+00  0.00000000E+00  0.00000000E+00
  0.00000000E+00  0.00000000E+00  0.00000000E+00
  0.00000000E+00  0.00000000E+00  0.00000000E+00
  0.00000000E+00  0.00000000E+00  0.00000000E+00
  0.00000000E+00  0.00000000E+00  0.00000000E+00
  0.00000000E+00  0.00000000E+00  0.00000000E+00
  0.00000000E+00  0.00000000E+00  0.00000000E+00
  0.00000000E+00  0.00000000E+00  0.00000000E+00
  0.00000000E+00  0.00000000E+00  0.00000000E+00
  0.00000000E+00  0.00000000E+00  0.00000000E+00
  0.00000000E+00  0.00000000E+00  0.00000000E+00
  0.00000000E+00  0.00000000E+00  0.00000000E+00
  0.00000000E+00  0.00000000E+00  0.00000000E+00
  0.00000000E+00  0.00000000E+00  0.00000000E+00
  0.00000000E+00  0.00000000E+00  0.00000000E+00
  0.00000000E+00  0.00000000E+00  0.00000000E+00
  0.00000000E+00  0.00000000E+00  0.00000000E+00
  0.00000000E+00  0.00000000E+00  0.00000000E+00
  0.00000000E+00  0.00000000E+00  0.00000000E+00
  0.00000000E+00  0.00000000E+00  0.00000000E+00
  0.00000000E+00  0.00000000E+00  0.00000000E+00
  0.00000000E+00  0.00000000E+00  0.00000000E+00
  0.00000000E+00  0.00000000E+00  0.00000000E+00
  0.00000000E+00  0.00000000E+00  0.00000000E+00
  0.00000000E+00  0.00000000E+00  0.00000000E+00
  0.00000000E+00  0.00000000E+00  0.00000000E+00
  0.00000000E+00  0.00000000E+00  0.00000000E+00
  0.00000000E+00  0.00000000E+00  0.00000000E+00
  0.00000000E+00  0.00000000E+00  0.00000000E+00
  0.00000000E+00  0.00000000E+00  0.00000000E+00
  0.00000000E+00  0.00000000E+00  0.00000000E+00
  0.00000000E+00  0.00000000E+00  0.00000000E+00
  0.00000000E+00  0.00000000E+00  0.00000000E+00
  0.00000000E+00  0.00000000E+00  0.00000000E+00
  0.00000000E+00  0.00000000E+00  0.00000000E+00
  0.00000000E+00  0.00000000E+00  0.00000000E+00
  0.00000000E+00  0.00000000E+00  0.00000000E+00
  0.00000000E+00  0.00000000E+00  0.00000000E+00
  0.00000000E+00  0.00000000E+00  0.00000000E+00
  0.00000000E+00  0.00000000E+00  0.00000000E+00
  0.00000000E+00  0.00000000E+00  0.00000000E+00
  0.00000000E+00  0.00000000E+00  0.00000000E+00
  0.00000000E+00  0.00000000E+00  0.00000000E+00
  0.00000000E+00  0.00000000E+00  0.00000000E+00
  0.00000000E+00  0.00000000E+00  0.00000000E+00
  0.00000000E+00  0.00000000E+00  0.00000000E+00
  0.00000000E+00  0.00000000E+00  0.00000000E+00
  0.00000000E+00  0.00000000E+00  0.00000000E+00
  0.00000000E+00  0.00000000E+00  0.00000000E+00
  0.00000000E+00  0.00000000E+00  0.00000000E+00
  0.00000000E+00  0.00000000E+00  0.00000000E+00
  0.00000000E+00  0.00000000E+00  0.00000000E+00
  0.00000000E+00  0.00000000E+00  0.00000000E+00
  0.00000000E+00  0.00000000E+00  0.00000000E+00
  0.00000000E+00  0.00000000E+00  0.00000000E+00
  0.00000000E+00  0.00000000E+00  0.00000000E+00
  0.00000000E+00  0.00000000E+00  0.00000000E+00
  0.00000000E+00  0.00000000E+00  0.00000000E+00
  0.00000000E+00  0.00000000E+00  0.00000000E+00
  0.00000000E+00  0.00000000E+00  0.00000000E+00
  0.00000000E+00  0.00000000E+00  0.00000000E+00
  0.00000000E+00  0.00000000E+00  0.00000000E+00
  0.00000000E+00  0.00000000E+00  0.00000000E+00
  0.00000000E+00  0.00000000E+00  0.00000000E+00
  0.00000000E+00  0.00000000E+00  0.00000000E+00
  0.00000000E+00  0.00000000E+00  0.00000000E+00
  0.00000000E+00  0.00000000E+00  0.00000000E+00
  0.00000000E+00  0.00000000E+00  0.00000000E+00
  0.00000000E+00  0.00000000E+00  0.00000000E+00
  0.00000000E+00  0.00000000E+00  0.00000000E+00
  0.00000000E+00  0.00000000E+00  0.00000000E+00
  0.00000000E+00  0.00000000E+00  0.00000000E+00
  0.00000000E+00  0.00000000E+00  0.00000000E+00
  0.00000000E+00  0.00000000E+00  0.00000000E+00
  0.00000000E+00  0.00000000E+00  0.00000000E+00
  0.00000000E+00  0.00000000E+00  0.00000000E+00
  0.00000000E+00  0.00000000E+00  0.00000000E+00
  0.00000000E+00  0.00000000E+00  0.00000000E+00
  0.00000000E+00  0.00000000E+00  0.00000000E+00
  0.00000000E+00  0.00000000E+00  0.00000000E+00
  0.00000000E+00  0.00000000E+00  0.00000000E+00
  0.00000000E+00  0.00000000E+00  0.00000000E+00
  0.00000000E+00  0.00000000E+00  0.00000000E+00
  0.00000000E+00  0.00000000E+00  0.00000000E+00
  0.00000000E+00  0.00000000E+00  0.00000000E+00
  0.00000000E+00  0.00000000E+00  0.00000000E+00
  0.00000000E+00  0.00000000E+00  0.00000000E+00
  0.00000000E+00  0.00000000E+00  0.00000000E+00
  0.00000000E+00  0.00000000E+00  0.00000000E+00
  0.00000000E+00  0.00000000E+00  0.00000000E+00
  0.00000000E+00  0.00000000E+00  0.00000000E+00
  0.00000000E+00  0.00000000E+00  0.00000000E+00
  0.00000000E+00  0.00000000E+00  0.00000000E+00
  0.00000000E+00  0.00000000E+00  0.00000000E+00
  0.00000000E+00  0.00000000E+00  0.00000000E+00
  0.00000000E+00  0.00000000E+00  0.00000000E+00
  0.00000000E+00  0.00000000E+00  0.00000000E+00
  0.00000000E+00  0.00000000E+00  0.00000000E+00
  0.00000000E+00  0.00000000E+00  0.00000000E+00
  0.00000000E+00  0.00000000E+00  0.00000000E+00
  0.00000000E+00  0.00000000E+00  0.00000000E+00
  0.00000000E+00  0.00000000E+00  0.00000000E+00
  0.00000000E+00  0.00000000E+00  0.00000000E+00
  0.00000000E+00  0.00000000E+00  0.00000000E+00
  0.00000000E+00  0.00000000E+00  0.00000000E+00
  0.00000000E+00  0.00000000E+00  0.00000000E+00
  0.00000000E+00  0.00000000E+00  0.00000000E+00
  0.00000000E+00  0.00000000E+00  0.00000000E+00
  0.00000000E+00  0.00000000E+00  0.00000000E+00
  0.00000000E+00  0.00000000E+00  0.00000000E+00
  0.00000000E+00  0.00000000E+00  0.00000000E+00
  0.00000000E+00  0.00000000E+00  0.00000000E+00
  0.00000000E+00  0.00000000E+00  0.00000000E+00
  0.00000000E+00  0.00000000E+00  0.00000000E+00
  0.00000000E+00  0.00000000E+00  0.00000000E+00
  0.00000000E+00  0.00000000E+00  0.00000000E+00
  0.00000000E+00  0.00000000E+00  0.00000000E+00
  0.00000000E+00  0.00000000E+00  0.00000000E+00
  0.00000000E+00  0.00000000E+00  0.00000000E+00
  0.00000000E+00  0.00000000E+00  0.00000000E+00
  0.00000000E+00  0.00000000E+00  0.00000000E+00
  0.00000000E+00  0.00000000E+00  0.00000000E+00
  0.00000000E+00  0.00000000E+00  0.00000000E+00
  0.00000000E+00  0.00000000E+00  0.00000000E+00
  0.00000000E+00  0.00000000E+00  0.00000000E+00
  0.00000000E+00  0.00000000E+00  0.00000000E+00
  0.00000000E+00  0.00000000E+00  0.00000000E+00
  0.00000000E+00  0.00000000E+00  0.00000000E+00
  0.00000000E+00  0.00000000E+00  0.00000000E+00
  0.00000000E+00  0.00000000E+00  0.00000000E+00
  0.00000000E+00  0.00000000E+00  0.00000000E+00
  0.00000000E+00  0.00000000E+00  0.00000000E+00
  0.00000000E+00  0.00000000E+00  0.00000000E+00
  0.00000000E+00  0.00000000E+00  0.00000000E+00
  0.00000000E+00  0.00000000E+00  0.00000000E+00
  0.00000000E+00  0.00000000E+00  0.00000000E+00
  0.00000000E+00  0.00000000E+00  0.00000000E+00
  0.00000000E+00  0.00000000E+00  0.00000000E+00
  0.00000000E+00  0.00000000E+00  0.00000000E+00
  0.00000000E+00  0.00000000E+00  0.00000000E+00
  0.00000000E+00  0.00000000E+00  0.00000000E+00
  0.00000000E+00  0.00000000E+00  0.00000000E+00
  0.00000000E+00  0.00000000E+00  0.00000000E+00
  0.00000000E+00  0.00000000E+00  0.00000000E+00
  0.00000000E+00  0.00000000E+00  0.00000000E+00
  0.00000000E+00  0.00000000E+00  0.00000000E+00
  0.00000000E+00  0.00000000E+00  0.00000000E+00
  0.00000000E+00  0.00000000E+00  0.00000000E+00
  0.00000000E+00  0.00000000E+00  0.00000000E+00
  0.00000000E+00  0.00000000E+00  0.00000000E+00
  0.00000000E+00  0.00000000E+00  0.00000000E+00
  0.00000000E+00  0.00000000E+00  0.00000000E+00
  0.00000000E+00  0.00000000E+00  0.00000000E+00
  0.00000000E+00  0.00000000E+00  0.00000000E+00
  0.00000000E+00  0.00000000E+00  0.00000000E+00
  0.00000000E+00  0.00000000E+00  0.00000000E+00
  0.00000000E+00  0.00000000E+00  0.00000000E+00
  0.00000000E+00  0.00000000E+00  0.00000000E+00
  0.00000000E+00  0.00000000E+00  0.00000000E+00
  0.00000000E+00  0.00000000E+00  0.00000000E+00
  0.00000000E+00  0.00000000E+00  0.00000000E+00
  0.00000000E+00  0.00000000E+00  0.00000000E+00
  0.00000000E+00  0.00000000E+00  0.00000000E+00
  0.00000000E+00  0.00000000E+00  0.00000000E+00
  0.00000000E+00  0.00000000E+00  0.00000000E+00
  0.00000000E+00  0.00000000E+00  0.00000000E+00
  0.00000000E+00  0.00000000E+00  0.00000000E+00
  0.00000000E+00  0.00000000E+00  0.00000000E+00
  0.00000000E+00  0.00000000E+00  0.00000000E+00
  0.00000000E+00  0.00000000E+00  0.00000000E+00
  0.00000000E+00  0.00000000E+00  0.00000000E+00
  0.00000000E+00  0.00000000E+00  0.00000000E+00
  0.00000000E+00  0.00000000E+00  0.00000000E+00
  0.00000000E+00  0.00000000E+00  0.00000000E+00
  0.00000000E+00  0.00000000E+00  0.00000000E+00
  0.00000000E+00  0.00000000E+00  0.00000000E+00
  0.00000000E+00  0.00000000E+00  0.00000000E+00
  0.00000000E+00  0.00000000E+00  0.00000000E+00
  0.00000000E+00  0.00000000E+00  0.00000000E+00
  0.00000000E+00  0.00000000E+00  0.00000000E+00
  0.00000000E+00  0.00000000E+00  0.00000000E+00
  0.00000000E+00  0.00000000E+00  0.00000000E+00
