K Cu48 H100 N O49                       
   1.00000000000000     
    10.2239000000000004    0.0000000000000000    0.0000000000000000
     0.0000000000000000   10.2239000000000004    0.0000000000000000
     0.0000000000000000    0.0000000000000000   37.6114999999999995
   Cu   O    H    K    N 
    48    49   100     1     1
Selective dynamics
Direct
  0.7579300000000018  0.7579300000000018  0.0480500000000035   F   F   F
  0.0079300000000018  0.7579300000000018  0.0480500000000035   F   F   F
  0.2579300000000018  0.7579300000000018  0.0480500000000035   F   F   F
  0.5079300000000018  0.7579300000000018  0.0480500000000035   F   F   F
  0.7579300000000018  0.0079300000000018  0.0480500000000035   F   F   F
  0.0079300000000018  0.0079300000000018  0.0480500000000035   F   F   F
  0.2579300000000018  0.0079300000000018  0.0480500000000035   F   F   F
  0.5079300000000018  0.0079300000000018  0.0480500000000035   F   F   F
  0.7579300000000018  0.2579300000000018  0.0480500000000035   F   F   F
  0.0079300000000018  0.2579300000000018  0.0480500000000035   F   F   F
  0.2579300000000018  0.2579300000000018  0.0480500000000035   F   F   F
  0.5079300000000018  0.2579300000000018  0.0480500000000035   F   F   F
  0.7579300000000018  0.5079300000000018  0.0480500000000035   F   F   F
  0.0079300000000018  0.5079300000000018  0.0480500000000035   F   F   F
  0.2579300000000018  0.5079300000000018  0.0480500000000035   F   F   F
  0.5079300000000018  0.5079300000000018  0.0480500000000035   F   F   F
  0.7633265572544995  0.7629474724324399  0.1411370639208919   T   T   T
  0.8838680606194047  0.8838274970244476  0.0941776806083037   T   T   T
  0.0101069257012752  0.7576839557705993  0.1413305773827494   T   T   T
  0.1325093941015722  0.8840508500942784  0.0950817335156600   T   T   T
  0.2563335202502107  0.7571028125606120  0.1409966395915698   T   T   T
  0.3819640035277061  0.8839181376884925  0.0937060983951404   T   T   T
  0.5028772320100376  0.7643271358168495  0.1406831770244592   T   T   T
  0.6334155030884769  0.8826950000731697  0.0951437449788655   T   T   T
  0.7568167720885154  0.0090814686045729  0.1423335556892182   T   T   T
  0.8844297380462794  0.1324655331918448  0.0951044329369733   T   T   T
  0.0071311543861367  0.0076790771094719  0.1422640728561526   T   T   T
  0.1329434068475693  0.1334621990616059  0.0944603371369537   T   T   T
  0.2594609707787126  0.0070222520587755  0.1416519154077279   T   T   T
  0.3826729707172607  0.1330580162984326  0.0948997397926078   T   T   T
  0.5081672255102455  0.0093576830118747  0.1419245976521336   T   T   T
  0.6332131741291827  0.1326163530823357  0.0940992957046139   T   T   T
  0.7590548113390159  0.2554840588618916  0.1409821279779958   T   T   T
  0.8798981669173663  0.3862273176121191  0.0950758205017657   T   T   T
  0.0079665587795395  0.2597670570930725  0.1417419709353056   T   T   T
  0.1332191775308529  0.3822146815513873  0.0948101824456953   T   T   T
  0.2603625731876720  0.2589373158525489  0.1410319753216876   T   T   T
  0.3876178121809366  0.3860976432483056  0.0952643752278542   T   T   T
  0.5091933932229684  0.2555133224848684  0.1416730821006334   T   T   T
  0.6332373959100933  0.3859836577556377  0.0959972563678691   T   T   T
  0.7643064307551805  0.5074551693170117  0.1456876491275214   T   T   T
  0.8809354338572541  0.6317472540795395  0.0951488969391039   T   T   T
  0.0110910487866360  0.5095004563201806  0.1413906649428457   T   T   T
  0.1328358345062949  0.6322811479983066  0.0938245802551820   T   T   T
  0.2575316083622621  0.5093158615951762  0.1414306784195878   T   T   T
  0.3856715653589264  0.6312192718851301  0.0952247889859696   T   T   T
  0.5030462570424726  0.5083410576123678  0.1464866656345716   T   T   T
  0.6332822438655046  0.6330556513809341  0.0946005414080487   T   T   T
  0.5989176727626060  0.9630509318933096  0.4418316944266529   T   T   T
  0.3212421478238022  0.3128403384054379  0.2899038420145907   T   T   T
  0.0373559881994215  0.0906626396062335  0.5125283912795970   T   T   T
  0.4054030198239476  0.3093712087020306  0.4467567607261002   T   T   T
  0.5428602211954551  0.6937333473349195  0.3870234645173107   T   T   T
  0.0991549412397844  0.4768270126686722  0.3121955162962497   T   T   T
  0.3349230960353144  0.2897505987902752  0.3778876355020576   T   T   T
  0.7358881077019098  0.3136114390754602  0.2280795446189093   T   T   T
  0.1734643388946857  0.3533609024741127  0.2181739734753995   T   T   T
  0.8184722445713503  0.0549713398107686  0.2414502193636709   T   T   T
  0.5729446081022634  0.5502526865031249  0.5281317620845553   T   T   T
  0.8083329995127927  0.8853317593265263  0.3205906440485011   T   T   T
  0.6108147099871560  0.9497982219614685  0.3680561980978041   T   T   T
  0.8001770166393715  0.8010093432992251  0.4584708993548695   T   T   T
  0.9860193325074504  0.0666367360831723  0.3037235296488431   T   T   T
  0.2240536806814995  0.9110779259596732  0.3010880005194553   T   T   T
  0.2335488863281301  0.0477347367512848  0.3695147732941641   T   T   T
  0.7263439129786213  0.3216836733539302  0.3611946826749307   T   T   T
  0.5345006826538170  0.6150521956013079  0.2827606107516160   T   T   T
  0.0910395966803399  0.3746453693732589  0.5351921882932152   T   T   T
  0.5638471379242186  0.2936316936080268  0.5459374599132299   T   T   T
  0.1978663139407145  0.6942603621398916  0.4330566847431992   T   T   T
  0.5235361583618341  0.1816941877994464  0.3369983758545050   T   T   T
  0.3979818090132526  0.5610753517264658  0.4716268623803738   T   T   T
  0.1294558715884236  0.8650496892822814  0.2380606555567761   T   T   T
  0.9078827031075057  0.7090741882220317  0.2273152749622281   T   T   T
  0.4746665865495885  0.3934626299955143  0.2389408287063135   T   T   T
  0.6889831650939086  0.5702611330071164  0.3400705345966962   T   T   T
  0.3738257143901971  0.7543195419063363  0.2199799604621060   T   T   T
  0.4626760829667215  0.0031404200325876  0.2811092077334194   T   T   T
  0.6720942013821543  0.3407893903373687  0.4322697375467953   T   T   T
  0.1050838483729489  0.6117406884096439  0.5009132715563321   T   T   T
  0.3411339844126932  0.9197833990550345  0.4274610657073840   T   T   T
  0.9873971408279409  0.0974069834797169  0.4153560729704561   T   T   T
 -0.0228046781221739  0.2519657795294720  0.3529262881546561   T   T   T
  0.6299001690545375  0.1000160895458357  0.5050116385725528   T   T   T
  0.2902847416262212  0.6597285497007288  0.3123553192515379   T   T   T
  0.3736236654570148  0.1281806745768296  0.2213518888647627   T   T   T
  0.8407723233134567  0.1901843259519041  0.4692747056889860   T   T   T
  0.9291180532688319  0.6684740494365061  0.3491372124474187   T   T   T
  0.9422399610852563  0.8332933584221878  0.5192958693756973   T   T   T
  0.3061175818956717  0.5628172839764609  0.3785319194172978   T   T   T
  0.2132968688864761  0.1222025486571668  0.4572680244152142   T   T   T
  0.9603718487025172  0.4569005757711398  0.2498253427649339   T   T   T
  0.9859939713316321  0.8218704823665787  0.4084610365315798   T   T   T
  0.6651138446629515  0.5802716208300384  0.4613764730756851   T   T   T
  0.3133374602474389  0.2859291879612616  0.5720615845274195   T   T   T
  0.8546350583695265  0.4285477129309810  0.5692671438358571   T   T   T
  0.7719353122890226  0.6735018264997381  0.5674921517782492   T   T   T
  0.6706946352879799  0.9012029323961805  0.4488369208524673   T   T   T
  0.5926708082687290  0.0247681358146579  0.4620577327598007   T   T   T
  0.2472196184291804  0.3620062683855743  0.3001365886276005   T   T   T
  0.3779690639306196  0.2835643569187794  0.3093300502330943   T   T   T
  0.9643393712991603  0.1294350736662412  0.4986469945015654   T   T   T
  0.1107171575136904  0.0892110178135139  0.4950412073357280   T   T   T
  0.3371546734603868  0.2474704421568774  0.4554889532077830   T   T   T
  0.3883532604728612  0.3973884932916629  0.4571644721652155   T   T   T
  0.5382058766187200  0.7844142161109062  0.3781352025893542   T   T   T
  0.4552393959750566  0.6525719341891030  0.3849942477685607   T   T   T
  0.1644270592427930  0.5482615162450618  0.3080383887881852   T   T   T
  0.0445156484800604  0.4697975427856563  0.2901848056450131   T   T   T
  0.2818349074450422  0.2081765086737897  0.3751101108740976   T   T   T
  0.3610190710651491  0.2942982729865895  0.4035883805152811   T   T   T
  0.6423299705443605  0.3317299804774110  0.2330351208896242   T   T   T
  0.7438722228515420  0.3169872197332209  0.2018357000040608   T   T   T
  0.2053012523185618  0.2633576207846320  0.2214871567545552   T   T   T
  0.1640551845475244  0.3639766548386672  0.1920273686669375   T   T   T
  0.7871576200421377  0.1443189192940525  0.2365614865467805   T   T   T
  0.8913957019742971  0.0662359374343800  0.2582325697146508   T   T   T
  0.6252686359766386  0.6025336423747423  0.5451566329175298   T   T   T
  0.6217616887444269  0.5587130034653428  0.5051955474923545   T   T   T
  0.8596522660230352  0.8089369992324860  0.3290665152871107   T   T   T
  0.7460998958654755  0.9077307816611226  0.3400416776496323   T   T   T
  0.6187481059246226  0.9726684290457617  0.3935815963354841   T   T   T
  0.5713289154160016  0.0283194176418693  0.3565810382270532   T   T   T
  0.8465167092271717  0.8126765203116922  0.4816275381531760   T   T   T
  0.7574413868482888  0.7124523884700324  0.4589537675389590   T   T   T
  0.9214898559521214 -0.0018501581942471  0.3118151110436655   T   T   T
  0.0720115755317965  0.0230026673245579  0.3030757807483104   T   T   T
  0.1811844399301192  0.8917358798071660  0.2768953166721468   T   T   T
  0.3118761779965433  0.9482774499268907  0.2944815377926940   T   T   T
  0.2249214473217210 -0.0012245564976757  0.3471592718628450   T   T   T
  0.2790417718903405  0.9906714698980846  0.3867801268851676   T   T   T
  0.7103031747521846  0.3225562264450769  0.3873725452398069   T   T   T
  0.8204042452487962  0.2957415813820448  0.3575225183130362   T   T   T
  0.5265607103216338  0.5352621427942688  0.2681327695826065   T   T   T
  0.5935035985208039  0.5918179527491784  0.3033170955250712   T   T   T
  0.0966264854949928  0.4532167265298065  0.5193936890483202   T   T   T
  0.0741744491666690  0.2965255364930311  0.5207927310989742   T   T   T
  0.5663528165421400  0.3868278628539652  0.5379349596458946   T   T   T
  0.4746739081859115  0.2834328674224598  0.5561055664831003   T   T   T
  0.1170140105376244  0.7411147885671926  0.4242225403468807   T   T   T
  0.2278714744766364  0.6380424256257345  0.4127425274271144   T   T   T
  0.6056750992303266  0.2312327417265778  0.3425298469395157   T   T   T
  0.4586291186713506  0.2177216860124693  0.3545887423723224   T   T   T
  0.4208054014454865  0.5694435632345467  0.4969994606904957   T   T   T
  0.3219369524546045  0.6168925328376161  0.4669573665535288   T   T   T
  0.0506438057280398  0.8106166023469439  0.2339661040480904   T   T   T
  0.2044451012728450  0.8193390720465629  0.2270019815915066   T   T   T
  0.9281100772217382  0.6170517730398416  0.2344520253521702   T   T   T
  0.9009255102627156  0.7053041802788745  0.2011623094701284   T   T   T
  0.4269480705589839  0.4206824750666231  0.2175745046003422   T   T   T
  0.4071713401969568  0.3657305327710674  0.2572616738275638   T   T   T
  0.6990867025612566  0.4767214396806601  0.3475838732839724   T   T   T
  0.6337005976741502  0.6147622915511991  0.3590002706581252   T   T   T
  0.3862617993826339  0.6735763328369723  0.2335499451798390   T   T   T
  0.3783059886476749  0.7262261565788248  0.1946041030914010   T   T   T
  0.4325146114455128  0.0487116852801222  0.2591128934919016   T   T   T
  0.4878660244659040  0.0724625194893530  0.2980765494326370   T   T   T
  0.7355169246070656  0.2876484136347703  0.4467215218937689   T   T   T
  0.5824716894024509  0.3117928952165345  0.4387483080299371   T   T   T
  0.0553785371258858  0.6873945164436102  0.5098480181158446   T   T   T
  0.1240517379802153  0.6323879097079879  0.4757933771092799   T   T   T
  0.4362936325548765  0.9169571120505533  0.4330833854184155   T   T   T
  0.3016093464901137  0.8317606834354792  0.4313246514418824   T   T   T
  0.9915022325865103  0.0037664324865786  0.4082125980796495   T   T   T
 -0.0065804856153763  0.1500114320856270  0.3932026468768771   T   T   T
  0.0317532510512440  0.3256166555382253  0.3452306169783854   T   T   T
 -0.0152810781070653  0.1832917605756815  0.3334811117859957   T   T   T
  0.6393410816688487  0.0288621835374223  0.5219888944387721   T   T   T
  0.5989875666427574  0.1791206277629994  0.5197356146495058   T   T   T
  0.3785760106906901  0.6465755182612535  0.3015178789325811   T   T   T
  0.2663946395144032  0.7547910697149363  0.3095768838302427   T   T   T
  0.3761554660336318  0.0844690944376293  0.1978289623745746   T   T   T
  0.4309320432996538  0.2043617539964225  0.2183227233415627   T   T   T
  0.7685222089763787  0.1400719915922648  0.4808175827909953   T   T   T
  0.8774444567094425  0.1412240710526574  0.4484663649227778   T   T   T
 -0.0080877000965050  0.6071837782524966  0.3382042750321562   T   T   T
  0.8409595889871897  0.6252829883875618  0.3468378120279351   T   T   T
  0.9777479991647817  0.9239520549476983  0.5214228384679741   T   T   T
  0.8938972615086195  0.8081826686692459  0.5407776822894552   T   T   T
  0.2947138436402946  0.5994061874708230  0.3539732989245425   T   T   T
  0.3069239388515929  0.4662336639844086  0.3762498323830973   T   T   T
  0.2636915767328687  0.0431638580238425  0.4492691427367383   T   T   T
  0.1389820553198270  0.1253422595419050  0.4400967465611464   T   T   T
  0.8797869970837768  0.4056258834295488  0.2454826936622242   T   T   T
  0.0323024502347154  0.4111241362225734  0.2366349271402760   T   T   T
  0.9131817951381110  0.8084601428893539  0.4261092694733010   T   T   T
  0.9637210536935860  0.7678102022914901  0.3872696804690459   T   T   T
  0.5739300069108879  0.6019634038386823  0.4550440298707840   T   T   T
  0.6803959222793113  0.4940606892486910  0.4492559814525326   T   T   T
  0.2383312799548169  0.3216420537240524  0.5583084647942660   T   T   T
  0.2965239520067495  0.3103060469618528  0.5966033567369053   T   T   T
  0.9384461112584680  0.4005507034497808  0.5582644467521790   T   T   T
  0.7868491854055774  0.3668728948425871  0.5619838310089077   T   T   T
  0.8106651009852415  0.5819757559239496  0.5684882481319793   T   T   T
  0.7519399101062807  0.6941478436396020  0.5922144709063011   T   T   T
  0.6341758028960250  0.6624582659370533  0.1888449336203432   T   T   T
  0.6443156373000652  0.5132884411766664  0.2052465666924188   T   T   T
  0.6728665789892003  0.8445427593127799  0.2549286210058713   T   T   T
  0.6348957960734692  0.5649044152022971  0.1819956000968201   T   T   T
 
  0.00000000E+00  0.00000000E+00  0.00000000E+00
  0.00000000E+00  0.00000000E+00  0.00000000E+00
  0.00000000E+00  0.00000000E+00  0.00000000E+00
  0.00000000E+00  0.00000000E+00  0.00000000E+00
  0.00000000E+00  0.00000000E+00  0.00000000E+00
  0.00000000E+00  0.00000000E+00  0.00000000E+00
  0.00000000E+00  0.00000000E+00  0.00000000E+00
  0.00000000E+00  0.00000000E+00  0.00000000E+00
  0.00000000E+00  0.00000000E+00  0.00000000E+00
  0.00000000E+00  0.00000000E+00  0.00000000E+00
  0.00000000E+00  0.00000000E+00  0.00000000E+00
  0.00000000E+00  0.00000000E+00  0.00000000E+00
  0.00000000E+00  0.00000000E+00  0.00000000E+00
  0.00000000E+00  0.00000000E+00  0.00000000E+00
  0.00000000E+00  0.00000000E+00  0.00000000E+00
  0.00000000E+00  0.00000000E+00  0.00000000E+00
  0.00000000E+00  0.00000000E+00  0.00000000E+00
  0.00000000E+00  0.00000000E+00  0.00000000E+00
  0.00000000E+00  0.00000000E+00  0.00000000E+00
  0.00000000E+00  0.00000000E+00  0.00000000E+00
  0.00000000E+00  0.00000000E+00  0.00000000E+00
  0.00000000E+00  0.00000000E+00  0.00000000E+00
  0.00000000E+00  0.00000000E+00  0.00000000E+00
  0.00000000E+00  0.00000000E+00  0.00000000E+00
  0.00000000E+00  0.00000000E+00  0.00000000E+00
  0.00000000E+00  0.00000000E+00  0.00000000E+00
  0.00000000E+00  0.00000000E+00  0.00000000E+00
  0.00000000E+00  0.00000000E+00  0.00000000E+00
  0.00000000E+00  0.00000000E+00  0.00000000E+00
  0.00000000E+00  0.00000000E+00  0.00000000E+00
  0.00000000E+00  0.00000000E+00  0.00000000E+00
  0.00000000E+00  0.00000000E+00  0.00000000E+00
  0.00000000E+00  0.00000000E+00  0.00000000E+00
  0.00000000E+00  0.00000000E+00  0.00000000E+00
  0.00000000E+00  0.00000000E+00  0.00000000E+00
  0.00000000E+00  0.00000000E+00  0.00000000E+00
  0.00000000E+00  0.00000000E+00  0.00000000E+00
  0.00000000E+00  0.00000000E+00  0.00000000E+00
  0.00000000E+00  0.00000000E+00  0.00000000E+00
  0.00000000E+00  0.00000000E+00  0.00000000E+00
  0.00000000E+00  0.00000000E+00  0.00000000E+00
  0.00000000E+00  0.00000000E+00  0.00000000E+00
  0.00000000E+00  0.00000000E+00  0.00000000E+00
  0.00000000E+00  0.00000000E+00  0.00000000E+00
  0.00000000E+00  0.00000000E+00  0.00000000E+00
  0.00000000E+00  0.00000000E+00  0.00000000E+00
  0.00000000E+00  0.00000000E+00  0.00000000E+00
  0.00000000E+00  0.00000000E+00  0.00000000E+00
  0.00000000E+00  0.00000000E+00  0.00000000E+00
  0.00000000E+00  0.00000000E+00  0.00000000E+00
  0.00000000E+00  0.00000000E+00  0.00000000E+00
  0.00000000E+00  0.00000000E+00  0.00000000E+00
  0.00000000E+00  0.00000000E+00  0.00000000E+00
  0.00000000E+00  0.00000000E+00  0.00000000E+00
  0.00000000E+00  0.00000000E+00  0.00000000E+00
  0.00000000E+00  0.00000000E+00  0.00000000E+00
  0.00000000E+00  0.00000000E+00  0.00000000E+00
  0.00000000E+00  0.00000000E+00  0.00000000E+00
  0.00000000E+00  0.00000000E+00  0.00000000E+00
  0.00000000E+00  0.00000000E+00  0.00000000E+00
  0.00000000E+00  0.00000000E+00  0.00000000E+00
  0.00000000E+00  0.00000000E+00  0.00000000E+00
  0.00000000E+00  0.00000000E+00  0.00000000E+00
  0.00000000E+00  0.00000000E+00  0.00000000E+00
  0.00000000E+00  0.00000000E+00  0.00000000E+00
  0.00000000E+00  0.00000000E+00  0.00000000E+00
  0.00000000E+00  0.00000000E+00  0.00000000E+00
  0.00000000E+00  0.00000000E+00  0.00000000E+00
  0.00000000E+00  0.00000000E+00  0.00000000E+00
  0.00000000E+00  0.00000000E+00  0.00000000E+00
  0.00000000E+00  0.00000000E+00  0.00000000E+00
  0.00000000E+00  0.00000000E+00  0.00000000E+00
  0.00000000E+00  0.00000000E+00  0.00000000E+00
  0.00000000E+00  0.00000000E+00  0.00000000E+00
  0.00000000E+00  0.00000000E+00  0.00000000E+00
  0.00000000E+00  0.00000000E+00  0.00000000E+00
  0.00000000E+00  0.00000000E+00  0.00000000E+00
  0.00000000E+00  0.00000000E+00  0.00000000E+00
  0.00000000E+00  0.00000000E+00  0.00000000E+00
  0.00000000E+00  0.00000000E+00  0.00000000E+00
  0.00000000E+00  0.00000000E+00  0.00000000E+00
  0.00000000E+00  0.00000000E+00  0.00000000E+00
  0.00000000E+00  0.00000000E+00  0.00000000E+00
  0.00000000E+00  0.00000000E+00  0.00000000E+00
  0.00000000E+00  0.00000000E+00  0.00000000E+00
  0.00000000E+00  0.00000000E+00  0.00000000E+00
  0.00000000E+00  0.00000000E+00  0.00000000E+00
  0.00000000E+00  0.00000000E+00  0.00000000E+00
  0.00000000E+00  0.00000000E+00  0.00000000E+00
  0.00000000E+00  0.00000000E+00  0.00000000E+00
  0.00000000E+00  0.00000000E+00  0.00000000E+00
  0.00000000E+00  0.00000000E+00  0.00000000E+00
  0.00000000E+00  0.00000000E+00  0.00000000E+00
  0.00000000E+00  0.00000000E+00  0.00000000E+00
  0.00000000E+00  0.00000000E+00  0.00000000E+00
  0.00000000E+00  0.00000000E+00  0.00000000E+00
  0.00000000E+00  0.00000000E+00  0.00000000E+00
  0.00000000E+00  0.00000000E+00  0.00000000E+00
  0.00000000E+00  0.00000000E+00  0.00000000E+00
  0.00000000E+00  0.00000000E+00  0.00000000E+00
  0.00000000E+00  0.00000000E+00  0.00000000E+00
  0.00000000E+00  0.00000000E+00  0.00000000E+00
  0.00000000E+00  0.00000000E+00  0.00000000E+00
  0.00000000E+00  0.00000000E+00  0.00000000E+00
  0.00000000E+00  0.00000000E+00  0.00000000E+00
  0.00000000E+00  0.00000000E+00  0.00000000E+00
  0.00000000E+00  0.00000000E+00  0.00000000E+00
  0.00000000E+00  0.00000000E+00  0.00000000E+00
  0.00000000E+00  0.00000000E+00  0.00000000E+00
  0.00000000E+00  0.00000000E+00  0.00000000E+00
  0.00000000E+00  0.00000000E+00  0.00000000E+00
  0.00000000E+00  0.00000000E+00  0.00000000E+00
  0.00000000E+00  0.00000000E+00  0.00000000E+00
  0.00000000E+00  0.00000000E+00  0.00000000E+00
  0.00000000E+00  0.00000000E+00  0.00000000E+00
  0.00000000E+00  0.00000000E+00  0.00000000E+00
  0.00000000E+00  0.00000000E+00  0.00000000E+00
  0.00000000E+00  0.00000000E+00  0.00000000E+00
  0.00000000E+00  0.00000000E+00  0.00000000E+00
  0.00000000E+00  0.00000000E+00  0.00000000E+00
  0.00000000E+00  0.00000000E+00  0.00000000E+00
  0.00000000E+00  0.00000000E+00  0.00000000E+00
  0.00000000E+00  0.00000000E+00  0.00000000E+00
  0.00000000E+00  0.00000000E+00  0.00000000E+00
  0.00000000E+00  0.00000000E+00  0.00000000E+00
  0.00000000E+00  0.00000000E+00  0.00000000E+00
  0.00000000E+00  0.00000000E+00  0.00000000E+00
  0.00000000E+00  0.00000000E+00  0.00000000E+00
  0.00000000E+00  0.00000000E+00  0.00000000E+00
  0.00000000E+00  0.00000000E+00  0.00000000E+00
  0.00000000E+00  0.00000000E+00  0.00000000E+00
  0.00000000E+00  0.00000000E+00  0.00000000E+00
  0.00000000E+00  0.00000000E+00  0.00000000E+00
  0.00000000E+00  0.00000000E+00  0.00000000E+00
  0.00000000E+00  0.00000000E+00  0.00000000E+00
  0.00000000E+00  0.00000000E+00  0.00000000E+00
  0.00000000E+00  0.00000000E+00  0.00000000E+00
  0.00000000E+00  0.00000000E+00  0.00000000E+00
  0.00000000E+00  0.00000000E+00  0.00000000E+00
  0.00000000E+00  0.00000000E+00  0.00000000E+00
  0.00000000E+00  0.00000000E+00  0.00000000E+00
  0.00000000E+00  0.00000000E+00  0.00000000E+00
  0.00000000E+00  0.00000000E+00  0.00000000E+00
  0.00000000E+00  0.00000000E+00  0.00000000E+00
  0.00000000E+00  0.00000000E+00  0.00000000E+00
  0.00000000E+00  0.00000000E+00  0.00000000E+00
  0.00000000E+00  0.00000000E+00  0.00000000E+00
  0.00000000E+00  0.00000000E+00  0.00000000E+00
  0.00000000E+00  0.00000000E+00  0.00000000E+00
  0.00000000E+00  0.00000000E+00  0.00000000E+00
  0.00000000E+00  0.00000000E+00  0.00000000E+00
  0.00000000E+00  0.00000000E+00  0.00000000E+00
  0.00000000E+00  0.00000000E+00  0.00000000E+00
  0.00000000E+00  0.00000000E+00  0.00000000E+00
  0.00000000E+00  0.00000000E+00  0.00000000E+00
  0.00000000E+00  0.00000000E+00  0.00000000E+00
  0.00000000E+00  0.00000000E+00  0.00000000E+00
  0.00000000E+00  0.00000000E+00  0.00000000E+00
  0.00000000E+00  0.00000000E+00  0.00000000E+00
  0.00000000E+00  0.00000000E+00  0.00000000E+00
  0.00000000E+00  0.00000000E+00  0.00000000E+00
  0.00000000E+00  0.00000000E+00  0.00000000E+00
  0.00000000E+00  0.00000000E+00  0.00000000E+00
  0.00000000E+00  0.00000000E+00  0.00000000E+00
  0.00000000E+00  0.00000000E+00  0.00000000E+00
  0.00000000E+00  0.00000000E+00  0.00000000E+00
  0.00000000E+00  0.00000000E+00  0.00000000E+00
  0.00000000E+00  0.00000000E+00  0.00000000E+00
  0.00000000E+00  0.00000000E+00  0.00000000E+00
  0.00000000E+00  0.00000000E+00  0.00000000E+00
  0.00000000E+00  0.00000000E+00  0.00000000E+00
  0.00000000E+00  0.00000000E+00  0.00000000E+00
  0.00000000E+00  0.00000000E+00  0.00000000E+00
  0.00000000E+00  0.00000000E+00  0.00000000E+00
  0.00000000E+00  0.00000000E+00  0.00000000E+00
  0.00000000E+00  0.00000000E+00  0.00000000E+00
  0.00000000E+00  0.00000000E+00  0.00000000E+00
  0.00000000E+00  0.00000000E+00  0.00000000E+00
  0.00000000E+00  0.00000000E+00  0.00000000E+00
  0.00000000E+00  0.00000000E+00  0.00000000E+00
  0.00000000E+00  0.00000000E+00  0.00000000E+00
  0.00000000E+00  0.00000000E+00  0.00000000E+00
  0.00000000E+00  0.00000000E+00  0.00000000E+00
  0.00000000E+00  0.00000000E+00  0.00000000E+00
  0.00000000E+00  0.00000000E+00  0.00000000E+00
  0.00000000E+00  0.00000000E+00  0.00000000E+00
  0.00000000E+00  0.00000000E+00  0.00000000E+00
  0.00000000E+00  0.00000000E+00  0.00000000E+00
  0.00000000E+00  0.00000000E+00  0.00000000E+00
  0.00000000E+00  0.00000000E+00  0.00000000E+00
  0.00000000E+00  0.00000000E+00  0.00000000E+00
  0.00000000E+00  0.00000000E+00  0.00000000E+00
  0.00000000E+00  0.00000000E+00  0.00000000E+00
  0.00000000E+00  0.00000000E+00  0.00000000E+00
  0.00000000E+00  0.00000000E+00  0.00000000E+00
  0.00000000E+00  0.00000000E+00  0.00000000E+00
  0.00000000E+00  0.00000000E+00  0.00000000E+00
  0.00000000E+00  0.00000000E+00  0.00000000E+00
  0.00000000E+00  0.00000000E+00  0.00000000E+00
