K Cu48 H98 C O50                        
   1.00000000000000     
    10.2239000000000004    0.0000000000000000    0.0000000000000000
     0.0000000000000000   10.2239000000000004    0.0000000000000000
     0.0000000000000000    0.0000000000000000   37.6114999999999995
   Cu   O    H    K    C 
    48    50    98     1     1
Selective dynamics
Direct
  0.7579300000000018  0.7579300000000018  0.0480500000000035   F   F   F
  0.0079300000000018  0.7579300000000018  0.0480500000000035   F   F   F
  0.2579300000000018  0.7579300000000018  0.0480500000000035   F   F   F
  0.5079300000000018  0.7579300000000018  0.0480500000000035   F   F   F
  0.7579300000000018  0.0079300000000018  0.0480500000000035   F   F   F
  0.0079300000000018  0.0079300000000018  0.0480500000000035   F   F   F
  0.2579300000000018  0.0079300000000018  0.0480500000000035   F   F   F
  0.5079300000000018  0.0079300000000018  0.0480500000000035   F   F   F
  0.7579300000000018  0.2579300000000018  0.0480500000000035   F   F   F
  0.0079300000000018  0.2579300000000018  0.0480500000000035   F   F   F
  0.2579300000000018  0.2579300000000018  0.0480500000000035   F   F   F
  0.5079300000000018  0.2579300000000018  0.0480500000000035   F   F   F
  0.7579300000000018  0.5079300000000018  0.0480500000000035   F   F   F
  0.0079300000000018  0.5079300000000018  0.0480500000000035   F   F   F
  0.2579300000000018  0.5079300000000018  0.0480500000000035   F   F   F
  0.5079300000000018  0.5079300000000018  0.0480500000000035   F   F   F
  0.7566624307257709  0.7622965510850163  0.1452120947708545   T   T   T
  0.8823948916382542  0.8797464485485004  0.0953619746686633   T   T   T
  0.0104489523135530  0.7562184997575955  0.1425706826249748   T   T   T
  0.1333934438945505  0.8826208161978349  0.0950664650279399   T   T   T
  0.2579030722135760  0.7584126980344634  0.1428195741201243   T   T   T
  0.3817679795447818  0.8828849862184451  0.0952257654137671   T   T   T
  0.5052140811046052  0.7576268695011948  0.1423465453043335   T   T   T
  0.6334559117475711  0.8798726061219071  0.0951738154025694   T   T   T
  0.7567211992790264  0.0055079899959528  0.1405819540841142   T   T   T
  0.8821201571684291  0.1336312182050265  0.0952873584196993   T   T   T
  0.0084850690396980  0.0069125647916822  0.1420315835926289   T   T   T
  0.1333216462837301  0.1320236430802467  0.0949521460811181   T   T   T
  0.2577203570997520  0.0079486840829040  0.1428197841669266   T   T   T
  0.3829222681903644  0.1322507088468092  0.0948778072230578   T   T   T
  0.5074967241856924  0.0068524685932331  0.1420360439167364   T   T   T
  0.6335152542675059  0.1340797221899768  0.0953100397811712   T   T   T
  0.7586568401874176  0.2578542801405274  0.1450913041449894   T   T   T
  0.8809914118014991  0.3819742379690604  0.0959176141087901   T   T   T
  0.0106907776484174  0.2561467253862421  0.1414209896815178   T   T   T
  0.1334240150471320  0.3821813688424743  0.0944181500271722   T   T   T
  0.2580308410451063  0.2575217142571548  0.1422377692477742   T   T   T
  0.3825838010259636  0.3825682099621615  0.0946717758423097   T   T   T
  0.5060456216790173  0.2568947085433970  0.1415625218873496   T   T   T
  0.6355073708332888  0.3822838949174119  0.0959133189843152   T   T   T
  0.7587404581121600  0.5136073340028582  0.1430304731288758   T   T   T
  0.8824929681393833  0.6335927556179871  0.0942408651885487   T   T   T
  0.0098876502119280  0.5060952562257613  0.1407988003097484   T   T   T
  0.1326859380620945  0.6340406428745428  0.0949093853755578   T   T   T
  0.2577300571219970  0.5110626371529517  0.1408294287624420   T   T   T
  0.3833994924322503  0.6339391031414831  0.0947625387435810   T   T   T
  0.5073201042886455  0.5075399401748993  0.1411056450321923   T   T   T
  0.6338278957424084  0.6341506819666028  0.0946691531293800   T   T   T
  0.5577459387643769  0.5521871598407974  0.2507257572787358   T   T   T
  0.6832753049153408  0.2785078453457122  0.4584727154735113   T   T   T
  0.2997783939701104  0.0605703746244757  0.3332973822627687   T   T   T
  0.8873377323131920  0.5533430691482342  0.5351301780718899   T   T   T
  0.2810067696224193  0.4237551291218632  0.4134447506430693   T   T   T
  0.5313132518749279  0.9504556406327160  0.4465286332707363   T   T   T
  0.3661747663555398  0.4203307366223622  0.2173258278307486   T   T   T
  0.3257425680966198  0.8380376856745333  0.4200450682892751   T   T   T
  0.7598128770873898  0.2248872996252424  0.2027555737850485   T   T   T
  0.0771501999444861  0.7117486478477476  0.2778710089119628   T   T   T
  0.4247319416667864  0.9485757534823138  0.2242482511451759   T   T   T
  0.1565364380051456  0.1629030543795778  0.2300350612003548   T   T   T
  0.6358243071705495  0.7035117754094832  0.4514198033547854   T   T   T
  0.0455890080432853  0.9593383238604061  0.2619930885866257   T   T   T
  0.6691149487264365  0.1066544972275612  0.4032471079600101   T   T   T
  0.6376709720253558  0.5539353445714921  0.5581144727999952   T   T   T
  0.4060291523713965  0.8651027951266643  0.2934751234345397   T   T   T
  0.2990422264986359  0.6404941569839150  0.3174162515861419   T   T   T
  0.1381552076857624  0.9617032394946657  0.3828866631325141   T   T   T
  0.6297529494418446  0.5553880895298060  0.3535240256591879   T   T   T
  0.9020249356336825  0.0816761721124545  0.3130727638948849   T   T   T
  0.9227388138846203  0.3460149780472618  0.4305487485719410   T   T   T
  0.6167386463848186  0.3116103351021255  0.5763065553779511   T   T   T
  0.8757409612062282  0.7085885220632350  0.4737158383969550   T   T   T
  0.5254883373012426  0.1846093274525480  0.3461148558594418   T   T   T
  0.2295448206918030  0.7533667489661499  0.4830031699303663   T   T   T
  0.8433892240694287  0.9764308298239335  0.2176833081448528   T   T   T
  0.1274850758352187  0.5409456643354253  0.2224260335646752   T   T   T
 -0.0358086636517835  0.3440143979205322  0.2377434095644112   T   T   T
  0.4573232042058310  0.4156983611956660  0.3062468315722465   T   T   T
  0.6471623106293100  0.7994735890297883  0.3249591674326343   T   T   T
  0.6680036256989774  0.1603789261322413  0.5231696823620066   T   T   T
  0.6563319129255133  0.0913073435258613  0.2870013630468595   T   T   T
  0.0899808430115837  0.5823706693311824  0.4420736819512723   T   T   T
  0.2632774591531358  0.1948778217157661  0.4901622521667678   T   T   T
  0.4331662480584928  0.3685457675713933  0.4654399382064263   T   T   T
  0.0747454061368141  0.1111103101932202  0.4390313438736744   T   T   T
  0.8807228006236971  0.4830651885544981  0.3661649770658524   T   T   T
  0.0168070492604931  0.3184645965961772  0.5149505705525391   T   T   T
 -0.0063884550192097  0.7288931603708430  0.3853299750638949   T   T   T
  0.5161518445327763  0.1971236688962114  0.2304925938423934   T   T   T
  0.4587678884280295  0.6036921591727958  0.4999435330543643   T   T   T
  0.8138948528439426  0.9266343323940658  0.3676783234771384   T   T   T
  0.0146730187477190  0.9251713031616299  0.4868426185481479   T   T   T
  0.9901635658643912  0.3320985510855021  0.3111018289211441   T   T   T
  0.3976287923375941  0.6289691710058959  0.3836580983548625   T   T   T
  0.2415180183518873  0.2695397743188981  0.2923082791101189   T   T   T
  0.4471080601529361  0.0118872247150248  0.5098180168443296   T   T   T
  0.9055556225232071  0.0791895477502577  0.5383355110786410   T   T   T
  0.7976452675220032  0.6140275833746749  0.2139815940485296   T   T   T
  0.4897307295102083  0.5173022548077592  0.2340794424718721   T   T   T
  0.6418854654752353  0.5364591479970050  0.2390750236643593   T   T   T
  0.6812562099905054  0.2089589498313731  0.4399301233088070   T   T   T
  0.6865599633770190  0.2341628079677321  0.4823096361515973   T   T   T
  0.2627157603889549  0.1314976411428929  0.3180152337455378   T   T   T
  0.2313123450134161  0.0295188201680849  0.3503266439704273   T   T   T
  0.8890562191494789  0.6077592737390796  0.5134122651351058   T   T   T
  0.9349879887748240  0.4719975351273004  0.5293744255274256   T   T   T
  0.2560112000331322  0.3456038090718895  0.4003862595507951   T   T   T
  0.3462644304510744  0.3959118196817262  0.4329961727142452   T   T   T
  0.4518174277167564  0.9170322994527876  0.4334748078798404   T   T   T
  0.5786654191917908  0.0116069836703130  0.4301955285360327   T   T   T
  0.2770567388449476  0.4597575529991846  0.2210649801255710   T   T   T
  0.3736117042915306  0.4138886588410801  0.1909524086546198   T   T   T
  0.2592299272466062  0.8849504413291790  0.4052515690997502   T   T   T
  0.3561219377468829  0.7593974968591781  0.4062300024622912   T   T   T
  0.6664718877328438  0.2209791397671538  0.2108610313623654   T   T   T
  0.7945631335491250  0.1342010370901964  0.2070684682788941   T   T   T
  0.0903142400713595  0.6550926241988777  0.2567171906644324   T   T   T
  0.1468842890766405  0.6851390102300878  0.2945525161348131   T   T   T
  0.3762374590507140  0.9136020487890913  0.2037730757497637   T   T   T
  0.3871673396452512  0.9137619610111980  0.2467439271321363   T   T   T
  0.1261474480974952  0.0757094367259866  0.2392185707503707   T   T   T
  0.1835283079717963  0.1520039423451437  0.2050086828995634   T   T   T
  0.5737817557698567  0.6657566055285068  0.4690637044162736   T   T   T
  0.6070028325096930  0.7957224486401484  0.4487146256950094   T   T   T
  0.0003153640150270 -0.0013436852110378  0.2830454977257141   T   T   T
  0.0652651346829115  0.8642178755098255  0.2680489131604058   T   T   T
  0.7312882053399811  0.0426894985995633  0.3923006750365454   T   T   T
  0.6180667239978086  0.1444536670312455  0.3831656171632531   T   T   T
  0.7299852298271332  0.5554419009155481  0.5488688000651787   T   T   T
  0.5790054120145259  0.5769765689601246  0.5383546783620582   T   T   T
  0.3615632191858708  0.9353069248806126  0.3074957713533937   T   T   T
  0.3617046741316580  0.7812644482321378  0.3003245215377143   T   T   T
  0.3233678995246350  0.6438429610488701  0.3432119853169167   T   T   T
  0.3484829160947734  0.5626560211816988  0.3093907237429076   T   T   T
  0.0796886261370244  0.8853191220508171  0.3796739147209335   T   T   T
  0.1017356344080989  0.0198244879310088  0.4021484663269471   T   T   T
  0.7196867940450065  0.5212079248682566  0.3590676716859461   T   T   T
  0.5855929455175148  0.4921027963104710  0.3380041807617600   T   T   T
  0.8143927041625303  0.0905616418287012  0.3012242192501463   T   T   T
  0.8840941311097057  0.0270323844330634  0.3345857887851776   T   T   T
  0.8377625247128178  0.3307631374590425  0.4431779967601130   T   T   T
 -0.0295411785480942  0.4080719968478901  0.4456607249705722   T   T   T
  0.6199336009956796  0.4096526488688139  0.5698438016644967   T   T   T
  0.5369048323534257  0.2977507148182949  0.5897810120151598   T   T   T
  0.7812102590233879  0.7056188581038282  0.4648123908840504   T   T   T
  0.9278732648054204  0.6538611604604205  0.4577285980500788   T   T   T
  0.5101521512830846  0.2717916241471323  0.3356048536839321   T   T   T
  0.4392315729171716  0.1376731627035529  0.3449379254965816   T   T   T
  0.1604863441498621  0.8157149668746090  0.4906601952930760   T   T   T
  0.2653935056209288  0.7919642448012453  0.4605756786737065   T   T   T
  0.9249140894568395  0.9676232601551409  0.2327277628932593   T   T   T
  0.8615841590438655  0.9288881868882410  0.1952625935036169   T   T   T
  0.0563633150754653  0.4733878649352921  0.2248578743744114   T   T   T
  0.1197666845761684  0.5765732875858357  0.1979877155183231   T   T   T
  0.8826353077139752  0.3180185275771424  0.2251191465646890   T   T   T
  0.0278533489839291  0.2720548888403010  0.2326599701650497   T   T   T
  0.3805661596827578  0.3624236196982337  0.2981346558934005   T   T   T
  0.5033955254897142  0.4501647237638867  0.2847047884218316   T   T   T
  0.5574788486098056  0.8297877426707895  0.3192843110186434   T   T   T
  0.6386431936608382  0.7081169495506837  0.3340955462529079   T   T   T
  0.5926202733504586  0.0994511379662628  0.5212120484179151   T   T   T
  0.6439160390275470  0.2226841188538052  0.5437397907528698   T   T   T
  0.6089334744104802  0.1167628274205286  0.3090646242421233   T   T   T
  0.6135577282518586  0.1436815949129727  0.2681422246225771   T   T   T
  0.1408879799564056  0.6352582220166216  0.4598041011710386   T   T   T
  0.1541514956755787  0.5208782774102081  0.4313589416052623   T   T   T
  0.3147186603657955  0.1193901390794678  0.4993029613070552   T   T   T
  0.2056307173462069  0.1614824253854786  0.4709717014626228   T   T   T
  0.5247365442342036  0.3353569608754199  0.4618043665567190   T   T   T
  0.3780462741370988  0.2976084381059949  0.4766665614778950   T   T   T
  0.0381203075376688  0.0452939339832599  0.4564002926476449   T   T   T
  0.0137596923560962  0.1865650958758249  0.4374747082281134   T   T   T
  0.9201739748166498  0.4316093873548933  0.3464083407115026   T   T   T
  0.8940662045935256  0.4312455756727360  0.3883477269937743   T   T   T
  0.1095905480673089  0.2963134836634848  0.5121572374947674   T   T   T
  0.9782565086852240  0.2382082754138240  0.5251797653184305   T   T   T
  0.0320034468704444  0.6871713566744190  0.4069057885473424   T   T   T
  0.9575423577759573  0.6523609526175967  0.3724326209654898   T   T   T
  0.4707159654840255  0.1131020835941614  0.2248502406560625   T   T   T
  0.4516107144644565  0.2685711785261549  0.2275840776478297   T   T   T
  0.4413114007388397  0.5157490034704652  0.4896022125578840   T   T   T
  0.3751253794597171  0.6517380629597944  0.4993252851629265   T   T   T
  0.8691216805443679  0.8573241035735935  0.3783593543087663   T   T   T
  0.7469147173032179  0.8789635485988796  0.3528651395786103   T   T   T
  0.9534283210392657  0.8508471859244829  0.4812265524089884   T   T   T
  0.9760458353828679  0.9719652793620063  0.5076133443956319   T   T   T
  0.9574672472064967  0.2406522121678623  0.3150127100409463   T   T   T
  0.9646648035645339  0.3506342448519955  0.2860017284964421   T   T   T
  0.3577288397990804  0.5479209574022531  0.3939481386173541   T   T   T
  0.4913845782596471  0.6085573994466308  0.3793594549939306   T   T   T
  0.1542123903222262  0.3035169958850688  0.3003884452668976   T   T   T
  0.2266631909267150  0.2369435555439302  0.2676608780687327   T   T   T
  0.4802390998301211  0.9860298056624009  0.4852529556928506   T   T   T
  0.4272427195186415  0.9306327647159751  0.5221930502105451   T   T   T
  0.8102178013562114  0.1013286467780333  0.5336068290053082   T   T   T
  0.9112547515829293  0.0569105558622736  0.5634266869067083   T   T   T
  0.6515585064928813  0.8365245944953978  0.2513855001169589   T   T   T
  0.7833054377281683  0.6535529102858003  0.1842590587132627   T   T   T
 
  0.00000000E+00  0.00000000E+00  0.00000000E+00
  0.00000000E+00  0.00000000E+00  0.00000000E+00
  0.00000000E+00  0.00000000E+00  0.00000000E+00
  0.00000000E+00  0.00000000E+00  0.00000000E+00
  0.00000000E+00  0.00000000E+00  0.00000000E+00
  0.00000000E+00  0.00000000E+00  0.00000000E+00
  0.00000000E+00  0.00000000E+00  0.00000000E+00
  0.00000000E+00  0.00000000E+00  0.00000000E+00
  0.00000000E+00  0.00000000E+00  0.00000000E+00
  0.00000000E+00  0.00000000E+00  0.00000000E+00
  0.00000000E+00  0.00000000E+00  0.00000000E+00
  0.00000000E+00  0.00000000E+00  0.00000000E+00
  0.00000000E+00  0.00000000E+00  0.00000000E+00
  0.00000000E+00  0.00000000E+00  0.00000000E+00
  0.00000000E+00  0.00000000E+00  0.00000000E+00
  0.00000000E+00  0.00000000E+00  0.00000000E+00
  0.00000000E+00  0.00000000E+00  0.00000000E+00
  0.00000000E+00  0.00000000E+00  0.00000000E+00
  0.00000000E+00  0.00000000E+00  0.00000000E+00
  0.00000000E+00  0.00000000E+00  0.00000000E+00
  0.00000000E+00  0.00000000E+00  0.00000000E+00
  0.00000000E+00  0.00000000E+00  0.00000000E+00
  0.00000000E+00  0.00000000E+00  0.00000000E+00
  0.00000000E+00  0.00000000E+00  0.00000000E+00
  0.00000000E+00  0.00000000E+00  0.00000000E+00
  0.00000000E+00  0.00000000E+00  0.00000000E+00
  0.00000000E+00  0.00000000E+00  0.00000000E+00
  0.00000000E+00  0.00000000E+00  0.00000000E+00
  0.00000000E+00  0.00000000E+00  0.00000000E+00
  0.00000000E+00  0.00000000E+00  0.00000000E+00
  0.00000000E+00  0.00000000E+00  0.00000000E+00
  0.00000000E+00  0.00000000E+00  0.00000000E+00
  0.00000000E+00  0.00000000E+00  0.00000000E+00
  0.00000000E+00  0.00000000E+00  0.00000000E+00
  0.00000000E+00  0.00000000E+00  0.00000000E+00
  0.00000000E+00  0.00000000E+00  0.00000000E+00
  0.00000000E+00  0.00000000E+00  0.00000000E+00
  0.00000000E+00  0.00000000E+00  0.00000000E+00
  0.00000000E+00  0.00000000E+00  0.00000000E+00
  0.00000000E+00  0.00000000E+00  0.00000000E+00
  0.00000000E+00  0.00000000E+00  0.00000000E+00
  0.00000000E+00  0.00000000E+00  0.00000000E+00
  0.00000000E+00  0.00000000E+00  0.00000000E+00
  0.00000000E+00  0.00000000E+00  0.00000000E+00
  0.00000000E+00  0.00000000E+00  0.00000000E+00
  0.00000000E+00  0.00000000E+00  0.00000000E+00
  0.00000000E+00  0.00000000E+00  0.00000000E+00
  0.00000000E+00  0.00000000E+00  0.00000000E+00
  0.00000000E+00  0.00000000E+00  0.00000000E+00
  0.00000000E+00  0.00000000E+00  0.00000000E+00
  0.00000000E+00  0.00000000E+00  0.00000000E+00
  0.00000000E+00  0.00000000E+00  0.00000000E+00
  0.00000000E+00  0.00000000E+00  0.00000000E+00
  0.00000000E+00  0.00000000E+00  0.00000000E+00
  0.00000000E+00  0.00000000E+00  0.00000000E+00
  0.00000000E+00  0.00000000E+00  0.00000000E+00
  0.00000000E+00  0.00000000E+00  0.00000000E+00
  0.00000000E+00  0.00000000E+00  0.00000000E+00
  0.00000000E+00  0.00000000E+00  0.00000000E+00
  0.00000000E+00  0.00000000E+00  0.00000000E+00
  0.00000000E+00  0.00000000E+00  0.00000000E+00
  0.00000000E+00  0.00000000E+00  0.00000000E+00
  0.00000000E+00  0.00000000E+00  0.00000000E+00
  0.00000000E+00  0.00000000E+00  0.00000000E+00
  0.00000000E+00  0.00000000E+00  0.00000000E+00
  0.00000000E+00  0.00000000E+00  0.00000000E+00
  0.00000000E+00  0.00000000E+00  0.00000000E+00
  0.00000000E+00  0.00000000E+00  0.00000000E+00
  0.00000000E+00  0.00000000E+00  0.00000000E+00
  0.00000000E+00  0.00000000E+00  0.00000000E+00
  0.00000000E+00  0.00000000E+00  0.00000000E+00
  0.00000000E+00  0.00000000E+00  0.00000000E+00
  0.00000000E+00  0.00000000E+00  0.00000000E+00
  0.00000000E+00  0.00000000E+00  0.00000000E+00
  0.00000000E+00  0.00000000E+00  0.00000000E+00
  0.00000000E+00  0.00000000E+00  0.00000000E+00
  0.00000000E+00  0.00000000E+00  0.00000000E+00
  0.00000000E+00  0.00000000E+00  0.00000000E+00
  0.00000000E+00  0.00000000E+00  0.00000000E+00
  0.00000000E+00  0.00000000E+00  0.00000000E+00
  0.00000000E+00  0.00000000E+00  0.00000000E+00
  0.00000000E+00  0.00000000E+00  0.00000000E+00
  0.00000000E+00  0.00000000E+00  0.00000000E+00
  0.00000000E+00  0.00000000E+00  0.00000000E+00
  0.00000000E+00  0.00000000E+00  0.00000000E+00
  0.00000000E+00  0.00000000E+00  0.00000000E+00
  0.00000000E+00  0.00000000E+00  0.00000000E+00
  0.00000000E+00  0.00000000E+00  0.00000000E+00
  0.00000000E+00  0.00000000E+00  0.00000000E+00
  0.00000000E+00  0.00000000E+00  0.00000000E+00
  0.00000000E+00  0.00000000E+00  0.00000000E+00
  0.00000000E+00  0.00000000E+00  0.00000000E+00
  0.00000000E+00  0.00000000E+00  0.00000000E+00
  0.00000000E+00  0.00000000E+00  0.00000000E+00
  0.00000000E+00  0.00000000E+00  0.00000000E+00
  0.00000000E+00  0.00000000E+00  0.00000000E+00
  0.00000000E+00  0.00000000E+00  0.00000000E+00
  0.00000000E+00  0.00000000E+00  0.00000000E+00
  0.00000000E+00  0.00000000E+00  0.00000000E+00
  0.00000000E+00  0.00000000E+00  0.00000000E+00
  0.00000000E+00  0.00000000E+00  0.00000000E+00
  0.00000000E+00  0.00000000E+00  0.00000000E+00
  0.00000000E+00  0.00000000E+00  0.00000000E+00
  0.00000000E+00  0.00000000E+00  0.00000000E+00
  0.00000000E+00  0.00000000E+00  0.00000000E+00
  0.00000000E+00  0.00000000E+00  0.00000000E+00
  0.00000000E+00  0.00000000E+00  0.00000000E+00
  0.00000000E+00  0.00000000E+00  0.00000000E+00
  0.00000000E+00  0.00000000E+00  0.00000000E+00
  0.00000000E+00  0.00000000E+00  0.00000000E+00
  0.00000000E+00  0.00000000E+00  0.00000000E+00
  0.00000000E+00  0.00000000E+00  0.00000000E+00
  0.00000000E+00  0.00000000E+00  0.00000000E+00
  0.00000000E+00  0.00000000E+00  0.00000000E+00
  0.00000000E+00  0.00000000E+00  0.00000000E+00
  0.00000000E+00  0.00000000E+00  0.00000000E+00
  0.00000000E+00  0.00000000E+00  0.00000000E+00
  0.00000000E+00  0.00000000E+00  0.00000000E+00
  0.00000000E+00  0.00000000E+00  0.00000000E+00
  0.00000000E+00  0.00000000E+00  0.00000000E+00
  0.00000000E+00  0.00000000E+00  0.00000000E+00
  0.00000000E+00  0.00000000E+00  0.00000000E+00
  0.00000000E+00  0.00000000E+00  0.00000000E+00
  0.00000000E+00  0.00000000E+00  0.00000000E+00
  0.00000000E+00  0.00000000E+00  0.00000000E+00
  0.00000000E+00  0.00000000E+00  0.00000000E+00
  0.00000000E+00  0.00000000E+00  0.00000000E+00
  0.00000000E+00  0.00000000E+00  0.00000000E+00
  0.00000000E+00  0.00000000E+00  0.00000000E+00
  0.00000000E+00  0.00000000E+00  0.00000000E+00
  0.00000000E+00  0.00000000E+00  0.00000000E+00
  0.00000000E+00  0.00000000E+00  0.00000000E+00
  0.00000000E+00  0.00000000E+00  0.00000000E+00
  0.00000000E+00  0.00000000E+00  0.00000000E+00
  0.00000000E+00  0.00000000E+00  0.00000000E+00
  0.00000000E+00  0.00000000E+00  0.00000000E+00
  0.00000000E+00  0.00000000E+00  0.00000000E+00
  0.00000000E+00  0.00000000E+00  0.00000000E+00
  0.00000000E+00  0.00000000E+00  0.00000000E+00
  0.00000000E+00  0.00000000E+00  0.00000000E+00
  0.00000000E+00  0.00000000E+00  0.00000000E+00
  0.00000000E+00  0.00000000E+00  0.00000000E+00
  0.00000000E+00  0.00000000E+00  0.00000000E+00
  0.00000000E+00  0.00000000E+00  0.00000000E+00
  0.00000000E+00  0.00000000E+00  0.00000000E+00
  0.00000000E+00  0.00000000E+00  0.00000000E+00
  0.00000000E+00  0.00000000E+00  0.00000000E+00
  0.00000000E+00  0.00000000E+00  0.00000000E+00
  0.00000000E+00  0.00000000E+00  0.00000000E+00
  0.00000000E+00  0.00000000E+00  0.00000000E+00
  0.00000000E+00  0.00000000E+00  0.00000000E+00
  0.00000000E+00  0.00000000E+00  0.00000000E+00
  0.00000000E+00  0.00000000E+00  0.00000000E+00
  0.00000000E+00  0.00000000E+00  0.00000000E+00
  0.00000000E+00  0.00000000E+00  0.00000000E+00
  0.00000000E+00  0.00000000E+00  0.00000000E+00
  0.00000000E+00  0.00000000E+00  0.00000000E+00
  0.00000000E+00  0.00000000E+00  0.00000000E+00
  0.00000000E+00  0.00000000E+00  0.00000000E+00
  0.00000000E+00  0.00000000E+00  0.00000000E+00
  0.00000000E+00  0.00000000E+00  0.00000000E+00
  0.00000000E+00  0.00000000E+00  0.00000000E+00
  0.00000000E+00  0.00000000E+00  0.00000000E+00
  0.00000000E+00  0.00000000E+00  0.00000000E+00
  0.00000000E+00  0.00000000E+00  0.00000000E+00
  0.00000000E+00  0.00000000E+00  0.00000000E+00
  0.00000000E+00  0.00000000E+00  0.00000000E+00
  0.00000000E+00  0.00000000E+00  0.00000000E+00
  0.00000000E+00  0.00000000E+00  0.00000000E+00
  0.00000000E+00  0.00000000E+00  0.00000000E+00
  0.00000000E+00  0.00000000E+00  0.00000000E+00
  0.00000000E+00  0.00000000E+00  0.00000000E+00
  0.00000000E+00  0.00000000E+00  0.00000000E+00
  0.00000000E+00  0.00000000E+00  0.00000000E+00
  0.00000000E+00  0.00000000E+00  0.00000000E+00
  0.00000000E+00  0.00000000E+00  0.00000000E+00
  0.00000000E+00  0.00000000E+00  0.00000000E+00
  0.00000000E+00  0.00000000E+00  0.00000000E+00
  0.00000000E+00  0.00000000E+00  0.00000000E+00
  0.00000000E+00  0.00000000E+00  0.00000000E+00
  0.00000000E+00  0.00000000E+00  0.00000000E+00
  0.00000000E+00  0.00000000E+00  0.00000000E+00
  0.00000000E+00  0.00000000E+00  0.00000000E+00
  0.00000000E+00  0.00000000E+00  0.00000000E+00
  0.00000000E+00  0.00000000E+00  0.00000000E+00
  0.00000000E+00  0.00000000E+00  0.00000000E+00
  0.00000000E+00  0.00000000E+00  0.00000000E+00
  0.00000000E+00  0.00000000E+00  0.00000000E+00
  0.00000000E+00  0.00000000E+00  0.00000000E+00
  0.00000000E+00  0.00000000E+00  0.00000000E+00
  0.00000000E+00  0.00000000E+00  0.00000000E+00
  0.00000000E+00  0.00000000E+00  0.00000000E+00
  0.00000000E+00  0.00000000E+00  0.00000000E+00
  0.00000000E+00  0.00000000E+00  0.00000000E+00
  0.00000000E+00  0.00000000E+00  0.00000000E+00
  0.00000000E+00  0.00000000E+00  0.00000000E+00
  0.00000000E+00  0.00000000E+00  0.00000000E+00
  0.00000000E+00  0.00000000E+00  0.00000000E+00
