K Cu48 H99 C O51                        
   1.00000000000000     
    10.2239000000000004    0.0000000000000000    0.0000000000000000
     0.0000000000000000   10.2239000000000004    0.0000000000000000
     0.0000000000000000    0.0000000000000000   37.6114999999999995
   Cu   O    H    K    C 
    48    51    99     1     1
Selective dynamics
Direct
  0.7579300000000018  0.7579300000000018  0.0480500000000035   F   F   F
  0.0079300000000018  0.7579300000000018  0.0480500000000035   F   F   F
  0.2579300000000018  0.7579300000000018  0.0480500000000035   F   F   F
  0.5079300000000018  0.7579300000000018  0.0480500000000035   F   F   F
  0.7579300000000018  0.0079300000000018  0.0480500000000035   F   F   F
  0.0079300000000018  0.0079300000000018  0.0480500000000035   F   F   F
  0.2579300000000018  0.0079300000000018  0.0480500000000035   F   F   F
  0.5079300000000018  0.0079300000000018  0.0480500000000035   F   F   F
  0.7579300000000018  0.2579300000000018  0.0480500000000035   F   F   F
  0.0079300000000018  0.2579300000000018  0.0480500000000035   F   F   F
  0.2579300000000018  0.2579300000000018  0.0480500000000035   F   F   F
  0.5079300000000018  0.2579300000000018  0.0480500000000035   F   F   F
  0.7579300000000018  0.5079300000000018  0.0480500000000035   F   F   F
  0.0079300000000018  0.5079300000000018  0.0480500000000035   F   F   F
  0.2579300000000018  0.5079300000000018  0.0480500000000035   F   F   F
  0.5079300000000018  0.5079300000000018  0.0480500000000035   F   F   F
  0.7494165851968803  0.7566877568973529  0.1464327987623321   T   T   T
  0.8831114788073174  0.8788693137805706  0.0961620672972833   T   T   T
  0.0153262892388322  0.7589473315888474  0.1438370614470884   T   T   T
  0.1321556227901261  0.8821484870132540  0.0951445789482954   T   T   T
  0.2602744794010202  0.7574894955229261  0.1426937458540752   T   T   T
  0.3814332651751118  0.8833561017027698  0.0953439902844196   T   T   T
  0.5030862922406468  0.7581335813276454  0.1418419448664199   T   T   T
  0.6342788875282853  0.8791255045729063  0.0951710049879591   T   T   T
  0.7568965548314430  0.0058496389543157  0.1400826122532220   T   T   T
  0.8817073403678111  0.1344991284508927  0.0949861646751984   T   T   T
  0.0080551014357436  0.0108058293839658  0.1415730470825528   T   T   T
  0.1337794550665836  0.1325281616502559  0.0952365005690444   T   T   T
  0.2570681925876561  0.0081159104549283  0.1428413856680607   T   T   T
  0.3828087464645022  0.1321588035845119  0.0946661990969512   T   T   T
  0.5074261864624245  0.0070800495588289  0.1417344784067225   T   T   T
  0.6329699613436001  0.1349031148403218  0.0956249085845764   T   T   T
  0.7580732071711913  0.2574480475642777  0.1455279327161494   T   T   T
  0.8805737872139526  0.3814333034019884  0.0960580016112467   T   T   T
  0.0113889214130897  0.2573021782075565  0.1418017556259622   T   T   T
  0.1335572701263539  0.3817930142351755  0.0941175439407557   T   T   T
  0.2575384902192314  0.2571806507661230  0.1424271991963488   T   T   T
  0.3823691329327732  0.3822972238630140  0.0951711840088327   T   T   T
  0.5040657627702957  0.2575635831422200  0.1417306197343202   T   T   T
  0.6342626148290391  0.3819276659786608  0.0955921364851691   T   T   T
  0.7578463384646327  0.5097784936195725  0.1420828594055223   T   T   T
  0.8824712200137917  0.6341550183283958  0.0949956469572353   T   T   T
  0.0099082412669476  0.5043247720514121  0.1405538839591203   T   T   T
  0.1320025723584790  0.6349487490944891  0.0954918449581423   T   T   T
  0.2568827053015327  0.5091662211122553  0.1412335626402971   T   T   T
  0.3825408728746909  0.6333624006009215  0.0943939731674381   T   T   T
  0.5060044085100732  0.5077240789217012  0.1414068864324305   T   T   T
  0.6334982469153264  0.6336951710281672  0.0954024963407444   T   T   T
  0.5385442117959310  0.5583439632668473  0.2480741133348090   T   T   T
  0.6774904672568464  0.2761047223451469  0.4583851502684699   T   T   T
  0.2967911677717621  0.0615979253288940  0.3331445480395029   T   T   T
  0.8850255108404869  0.5561923920865811  0.5367764322030889   T   T   T
  0.2698718523538552  0.4217133799749957  0.4149277320005815   T   T   T
  0.5300432738882015  0.9496266784185941  0.4453505434787212   T   T   T
  0.3596846766104010  0.4018591548623553  0.2168241935794127   T   T   T
  0.3215054005371152  0.8392971126012091  0.4200296803805316   T   T   T
  0.7538646626481778  0.2353064622731034  0.2028682800903955   T   T   T
  0.0948088943755461  0.7082712036477697  0.2750146145187111   T   T   T
  0.4220346664865062  0.9440527395947775  0.2249724844391606   T   T   T
  0.1475700245008633  0.1607242992031346  0.2307478557213239   T   T   T
  0.6367558457427036  0.7037975904581717  0.4526137920663089   T   T   T
  0.0375034434215825  0.9574430183728774  0.2622432335221044   T   T   T
  0.6666829191282022  0.1072788750433794  0.4026150166241531   T   T   T
  0.6347032896105620  0.5461260832889889  0.5589446645487210   T   T   T
  0.4025225415576251  0.8648384506563129  0.2944039373300245   T   T   T
  0.2988466180347495  0.6391245116095682  0.3182381686613655   T   T   T
  0.1338791001892310  0.9606051379477801  0.3822846969922994   T   T   T
  0.6226455650703658  0.5513142388745393  0.3551250662731248   T   T   T
  0.8983861148454745  0.0773165150299119  0.3140971069863293   T   T   T
  0.9178126410142191  0.3448696279514326  0.4320350769154848   T   T   T
  0.6183557492051107  0.3038316225778229  0.5766305786000693   T   T   T
  0.8756667745257514  0.7115674911242571  0.4759146687528133   T   T   T
  0.5211549780402394  0.1882675274948516  0.3456602569112580   T   T   T
  0.2317152722929627  0.7599143207613286  0.4841478164145813   T   T   T
  0.8316859909033923  0.9933955505235844  0.2191638035188443   T   T   T
  0.1243042831842761  0.5261604759166916  0.2220829402207026   T   T   T
 -0.0435513308980181  0.3422169480371400  0.2398143862738306   T   T   T
  0.4564353886765191  0.4207316385251974  0.3043254882811043   T   T   T
  0.6390577899776445  0.7957359021087097  0.3267324722605699   T   T   T
  0.6645937732293148  0.1553374406892258  0.5228205514007604   T   T   T
  0.6538403114438106  0.0879486403286225  0.2880575136285899   T   T   T
  0.0869647738523713  0.5910024652504372  0.4434262182052673   T   T   T
  0.2612413628111511  0.1949746205669590  0.4903571038930211   T   T   T
  0.4290943456585848  0.3719748103705561  0.4661322742720411   T   T   T
  0.0727970291226441  0.1108333601480270  0.4385512560319950   T   T   T
  0.8765952182706130  0.4828456865543338  0.3671702210224388   T   T   T
  0.0169683680612620  0.3247143231467841  0.5134737599279989   T   T   T
 -0.0133400896132614  0.7295663075137222  0.3860671002213547   T   T   T
  0.5152069059153523  0.1920408958316244  0.2312269559715487   T   T   T
  0.4579822523702143  0.6056813085655639  0.5011069875028070   T   T   T
  0.8075311688220453  0.9233685357603938  0.3684170583024366   T   T   T
  0.0157603961352997  0.9283616991969629  0.4876408992512024   T   T   T
  0.9858155171082663  0.3287433046461247  0.3131283468035909   T   T   T
  0.3898473350271346  0.6251579462410183  0.3849559566514457   T   T   T
  0.2372877352947957  0.2696458266760683  0.2923573603510650   T   T   T
  0.4432427067285299  0.0089540625656172  0.5085749056019641   T   T   T
  0.9058432023644722  0.0868479005807106  0.5377857747394101   T   T   T
  0.9387590133978987  0.7333046087238128  0.1987906250853310   T   T   T
  0.7668697647566534  0.6180496105652066  0.2166395607108009   T   T   T
  0.4738292040513911  0.5158086691658211  0.2320062984820029   T   T   T
  0.6212111259891565  0.5618735564571391  0.2342854077766314   T   T   T
  0.6753773795622561  0.2075801985409176  0.4395641229595103   T   T   T
  0.6802501627247630  0.2302616324781508  0.4820534690965718   T   T   T
  0.2598160829277748  0.1322834107252059  0.3176720384948565   T   T   T
  0.2282017536929740  0.0304035009940688  0.3500607686697269   T   T   T
  0.8863366411598856  0.6132195731539646  0.5155123390568984   T   T   T
  0.9342079967932363  0.4766594391257862  0.5301872355881637   T   T   T
  0.2439816555584444  0.3423798099386290  0.4025364731553586   T   T   T
  0.3375540047257369  0.3959504383948633  0.4339848620908019   T   T   T
  0.4498312311300568  0.9170981759835143  0.4325005251934489   T   T   T
  0.5767657020945394  0.0114165452916128  0.4290459445502212   T   T   T
  0.2707345614767294  0.4400150253295302  0.2210769983319396   T   T   T
  0.3648471469203864  0.3913499642582511  0.1904415768713003   T   T   T
  0.2546518161413425  0.8850787283306768  0.4050712577370758   T   T   T
  0.3499272048037181  0.7586234762321024  0.4068833885936009   T   T   T
  0.6604739060462600  0.2302065876316863  0.2109591841199003   T   T   T
  0.7886283900804872  0.1450539870651595  0.2083850520538121   T   T   T
  0.1153317010011141  0.6458499770359202  0.2556349564777269   T   T   T
  0.1567472512685030  0.6842445599252782  0.2941798492072386   T   T   T
  0.3730711670335232  0.9079888881958743  0.2047555976076095   T   T   T
  0.3848009140329182  0.9109085410909809  0.2476956310289813   T   T   T
  0.1181683907671605  0.0729815980053460  0.2398534214109734   T   T   T
  0.1755579182996505  0.1507080536988298  0.2057965982721781   T   T   T
  0.5744041602852067  0.6672559495532386  0.4703673232791266   T   T   T
  0.6067281782614522  0.7952085211038336  0.4490022348820583   T   T   T
 -0.0050907815547201 -0.0063239270228210  0.2841077233823553   T   T   T
  0.0647168699900052  0.8641828612349797  0.2671567722469965   T   T   T
  0.7278048207028072  0.0415706865117678  0.3918771413716962   T   T   T
  0.6159069131411905  0.1453077962763390  0.3825676997236053   T   T   T
  0.7270492139629272  0.5517241509967399  0.5498351568002491   T   T   T
  0.5754538135351367  0.5720956129000180  0.5395872808894498   T   T   T
  0.3578146625313429  0.9354104429209821  0.3082637494355749   T   T   T
  0.3584498432208557  0.7808586033140273  0.3011734056919577   T   T   T
  0.3201775233159068  0.6412253382152087  0.3442500272876217   T   T   T
  0.3504351461639894  0.5625101192270299  0.3100683681411496   T   T   T
  0.0749678090435112  0.8845157456832136  0.3791507961157014   T   T   T
  0.0977824221987174  0.0186672638250422  0.4015953356489424   T   T   T
  0.7134685957217904  0.5191056227502787  0.3603499449558437   T   T   T
  0.5811539397650247  0.4905595070913834  0.3383697925229225   T   T   T
  0.8106528266118791  0.0862133139028555  0.3022062155709925   T   T   T
  0.8796855189284883  0.0228998057594346  0.3355912553764671   T   T   T
  0.8310625649007212  0.3275123786778554  0.4435682768403883   T   T   T
 -0.0355671943392193  0.3993588264085373  0.4493589509418519   T   T   T
  0.6195745849358656  0.4020876625454752  0.5703131214172882   T   T   T
  0.5420787878155583  0.2889636467160809  0.5914458025443419   T   T   T
  0.7816297292540171  0.7080058374641996  0.4666270582071320   T   T   T
  0.9286042381894181  0.6542026872634661  0.4606972612771861   T   T   T
  0.5067297643619258  0.2743883853836815  0.3345022651213893   T   T   T
  0.4352278531794875  0.1409077924376219  0.3443836558962498   T   T   T
  0.1617240347602725  0.8216669783240031  0.4916298914248530   T   T   T
  0.2653749657202737  0.7971388598245894  0.4612956970811442   T   T   T
  0.9126789368788567  0.9766467562949096  0.2337149204317963   T   T   T
  0.8491360143532514  0.9509974573077012  0.1960250468030998   T   T   T
  0.0516868380216864  0.4600899325404358  0.2260906697394295   T   T   T
  0.1240868780921755  0.5474456259899501  0.1962600429728631   T   T   T
  0.8738568175628073  0.3221018902338321  0.2267315943541597   T   T   T
  0.0168696399920218  0.2678547289121000  0.2343623084852170   T   T   T
  0.3805410956679413  0.3664758104353817  0.2964346230581363   T   T   T
  0.4996206829505409  0.4586680365635415  0.2825240755755706   T   T   T
  0.5498559258329749  0.8264420025383380  0.3204794061167126   T   T   T
  0.6300177611117687  0.7049798257002160  0.3362595968999563   T   T   T
  0.5901009476021679  0.0933892003480220  0.5209918838441985   T   T   T
  0.6411499025955651  0.2163830842089444  0.5437899396222921   T   T   T
  0.6056433043691644  0.1163384650235095  0.3097123410528203   T   T   T
  0.6124824142600217  0.1389793993568398  0.2686424581627513   T   T   T
  0.1411088812668766  0.6424976055778441  0.4606435306425136   T   T   T
  0.1467069966530135  0.5249839656575871  0.4329037389905491   T   T   T
  0.3138843708577169  0.1194378773160037  0.4989949686134489   T   T   T
  0.2040920237209097  0.1621713584206727  0.4710149028158125   T   T   T
  0.5200889731362270  0.3380296934464146  0.4620158931366794   T   T   T
  0.3749172943584960  0.3007158082090439  0.4774742061221670   T   T   T
  0.0380726313620203  0.0454475535352852  0.4563500713834896   T   T   T
  0.0105950146795975  0.1854216913519110  0.4371964641841401   T   T   T
  0.9158791158699784  0.4295597554014502  0.3476823486364457   T   T   T
  0.8905644631636442  0.4330551057963676  0.3896242648975603   T   T   T
  0.1097446755586462  0.3015308305797514  0.5115743039535030   T   T   T
  0.9765520476642010  0.2450445202413341  0.5236431590150489   T   T   T
  0.0249088016025285  0.6910637268787142  0.4081297941105512   T   T   T
  0.9526056060201711  0.6510389329190641  0.3736181121175904   T   T   T
  0.4715864093802486  0.1076742478178083  0.2251515701339326   T   T   T
  0.4484398846049178  0.2620765174535346  0.2287937829470484   T   T   T
  0.4391111176046858  0.5186752964260110  0.4903749576410185   T   T   T
  0.3753960534997299  0.6555382722471130  0.5003470307160387   T   T   T
  0.8625176597013505  0.8539019836985209  0.3792866474621602   T   T   T
  0.7396317837283720  0.8759614810070078  0.3538029813460560   T   T   T
  0.9541698384577955  0.8535751025842810  0.4826101976866509   T   T   T
  0.9776030334475702  0.9771806010084718  0.5081455604231229   T   T   T
  0.9538280257058452  0.2369271705732565  0.3167805130271972   T   T   T
  0.9587269182309593  0.3484785110794473  0.2882409886840581   T   T   T
  0.3477796586293747  0.5447479524583563  0.3949756015598280   T   T   T
  0.4832648410900969  0.6030256201970802  0.3807366067204137   T   T   T
  0.1508807252851543  0.3024633742631815  0.3013188684294832   T   T   T
  0.2190790416609527  0.2361458805854991  0.2679353887051381   T   T   T
  0.4773311648379899  0.9850227966774604  0.4839667038912607   T   T   T
  0.4184150733015721  0.9268174058039818  0.5198190856675667   T   T   T
  0.8093645758335156  0.1035214775597332  0.5329409162568466   T   T   T
  0.9127649493580546  0.0686030602791879  0.5631023031702355   T   T   T
  0.9743992648442518  0.6878291762936388  0.2198984468637681   T   T   T
  0.6458491295404469  0.8349177966959069  0.2529395327772501   T   T   T
  0.8111469690763440  0.6874139964829684  0.1922511638901277   T   T   T
 
  0.00000000E+00  0.00000000E+00  0.00000000E+00
  0.00000000E+00  0.00000000E+00  0.00000000E+00
  0.00000000E+00  0.00000000E+00  0.00000000E+00
  0.00000000E+00  0.00000000E+00  0.00000000E+00
  0.00000000E+00  0.00000000E+00  0.00000000E+00
  0.00000000E+00  0.00000000E+00  0.00000000E+00
  0.00000000E+00  0.00000000E+00  0.00000000E+00
  0.00000000E+00  0.00000000E+00  0.00000000E+00
  0.00000000E+00  0.00000000E+00  0.00000000E+00
  0.00000000E+00  0.00000000E+00  0.00000000E+00
  0.00000000E+00  0.00000000E+00  0.00000000E+00
  0.00000000E+00  0.00000000E+00  0.00000000E+00
  0.00000000E+00  0.00000000E+00  0.00000000E+00
  0.00000000E+00  0.00000000E+00  0.00000000E+00
  0.00000000E+00  0.00000000E+00  0.00000000E+00
  0.00000000E+00  0.00000000E+00  0.00000000E+00
  0.00000000E+00  0.00000000E+00  0.00000000E+00
  0.00000000E+00  0.00000000E+00  0.00000000E+00
  0.00000000E+00  0.00000000E+00  0.00000000E+00
  0.00000000E+00  0.00000000E+00  0.00000000E+00
  0.00000000E+00  0.00000000E+00  0.00000000E+00
  0.00000000E+00  0.00000000E+00  0.00000000E+00
  0.00000000E+00  0.00000000E+00  0.00000000E+00
  0.00000000E+00  0.00000000E+00  0.00000000E+00
  0.00000000E+00  0.00000000E+00  0.00000000E+00
  0.00000000E+00  0.00000000E+00  0.00000000E+00
  0.00000000E+00  0.00000000E+00  0.00000000E+00
  0.00000000E+00  0.00000000E+00  0.00000000E+00
  0.00000000E+00  0.00000000E+00  0.00000000E+00
  0.00000000E+00  0.00000000E+00  0.00000000E+00
  0.00000000E+00  0.00000000E+00  0.00000000E+00
  0.00000000E+00  0.00000000E+00  0.00000000E+00
  0.00000000E+00  0.00000000E+00  0.00000000E+00
  0.00000000E+00  0.00000000E+00  0.00000000E+00
  0.00000000E+00  0.00000000E+00  0.00000000E+00
  0.00000000E+00  0.00000000E+00  0.00000000E+00
  0.00000000E+00  0.00000000E+00  0.00000000E+00
  0.00000000E+00  0.00000000E+00  0.00000000E+00
  0.00000000E+00  0.00000000E+00  0.00000000E+00
  0.00000000E+00  0.00000000E+00  0.00000000E+00
  0.00000000E+00  0.00000000E+00  0.00000000E+00
  0.00000000E+00  0.00000000E+00  0.00000000E+00
  0.00000000E+00  0.00000000E+00  0.00000000E+00
  0.00000000E+00  0.00000000E+00  0.00000000E+00
  0.00000000E+00  0.00000000E+00  0.00000000E+00
  0.00000000E+00  0.00000000E+00  0.00000000E+00
  0.00000000E+00  0.00000000E+00  0.00000000E+00
  0.00000000E+00  0.00000000E+00  0.00000000E+00
  0.00000000E+00  0.00000000E+00  0.00000000E+00
  0.00000000E+00  0.00000000E+00  0.00000000E+00
  0.00000000E+00  0.00000000E+00  0.00000000E+00
  0.00000000E+00  0.00000000E+00  0.00000000E+00
  0.00000000E+00  0.00000000E+00  0.00000000E+00
  0.00000000E+00  0.00000000E+00  0.00000000E+00
  0.00000000E+00  0.00000000E+00  0.00000000E+00
  0.00000000E+00  0.00000000E+00  0.00000000E+00
  0.00000000E+00  0.00000000E+00  0.00000000E+00
  0.00000000E+00  0.00000000E+00  0.00000000E+00
  0.00000000E+00  0.00000000E+00  0.00000000E+00
  0.00000000E+00  0.00000000E+00  0.00000000E+00
  0.00000000E+00  0.00000000E+00  0.00000000E+00
  0.00000000E+00  0.00000000E+00  0.00000000E+00
  0.00000000E+00  0.00000000E+00  0.00000000E+00
  0.00000000E+00  0.00000000E+00  0.00000000E+00
  0.00000000E+00  0.00000000E+00  0.00000000E+00
  0.00000000E+00  0.00000000E+00  0.00000000E+00
  0.00000000E+00  0.00000000E+00  0.00000000E+00
  0.00000000E+00  0.00000000E+00  0.00000000E+00
  0.00000000E+00  0.00000000E+00  0.00000000E+00
  0.00000000E+00  0.00000000E+00  0.00000000E+00
  0.00000000E+00  0.00000000E+00  0.00000000E+00
  0.00000000E+00  0.00000000E+00  0.00000000E+00
  0.00000000E+00  0.00000000E+00  0.00000000E+00
  0.00000000E+00  0.00000000E+00  0.00000000E+00
  0.00000000E+00  0.00000000E+00  0.00000000E+00
  0.00000000E+00  0.00000000E+00  0.00000000E+00
  0.00000000E+00  0.00000000E+00  0.00000000E+00
  0.00000000E+00  0.00000000E+00  0.00000000E+00
  0.00000000E+00  0.00000000E+00  0.00000000E+00
  0.00000000E+00  0.00000000E+00  0.00000000E+00
  0.00000000E+00  0.00000000E+00  0.00000000E+00
  0.00000000E+00  0.00000000E+00  0.00000000E+00
  0.00000000E+00  0.00000000E+00  0.00000000E+00
  0.00000000E+00  0.00000000E+00  0.00000000E+00
  0.00000000E+00  0.00000000E+00  0.00000000E+00
  0.00000000E+00  0.00000000E+00  0.00000000E+00
  0.00000000E+00  0.00000000E+00  0.00000000E+00
  0.00000000E+00  0.00000000E+00  0.00000000E+00
  0.00000000E+00  0.00000000E+00  0.00000000E+00
  0.00000000E+00  0.00000000E+00  0.00000000E+00
  0.00000000E+00  0.00000000E+00  0.00000000E+00
  0.00000000E+00  0.00000000E+00  0.00000000E+00
  0.00000000E+00  0.00000000E+00  0.00000000E+00
  0.00000000E+00  0.00000000E+00  0.00000000E+00
  0.00000000E+00  0.00000000E+00  0.00000000E+00
  0.00000000E+00  0.00000000E+00  0.00000000E+00
  0.00000000E+00  0.00000000E+00  0.00000000E+00
  0.00000000E+00  0.00000000E+00  0.00000000E+00
  0.00000000E+00  0.00000000E+00  0.00000000E+00
  0.00000000E+00  0.00000000E+00  0.00000000E+00
  0.00000000E+00  0.00000000E+00  0.00000000E+00
  0.00000000E+00  0.00000000E+00  0.00000000E+00
  0.00000000E+00  0.00000000E+00  0.00000000E+00
  0.00000000E+00  0.00000000E+00  0.00000000E+00
  0.00000000E+00  0.00000000E+00  0.00000000E+00
  0.00000000E+00  0.00000000E+00  0.00000000E+00
  0.00000000E+00  0.00000000E+00  0.00000000E+00
  0.00000000E+00  0.00000000E+00  0.00000000E+00
  0.00000000E+00  0.00000000E+00  0.00000000E+00
  0.00000000E+00  0.00000000E+00  0.00000000E+00
  0.00000000E+00  0.00000000E+00  0.00000000E+00
  0.00000000E+00  0.00000000E+00  0.00000000E+00
  0.00000000E+00  0.00000000E+00  0.00000000E+00
  0.00000000E+00  0.00000000E+00  0.00000000E+00
  0.00000000E+00  0.00000000E+00  0.00000000E+00
  0.00000000E+00  0.00000000E+00  0.00000000E+00
  0.00000000E+00  0.00000000E+00  0.00000000E+00
  0.00000000E+00  0.00000000E+00  0.00000000E+00
  0.00000000E+00  0.00000000E+00  0.00000000E+00
  0.00000000E+00  0.00000000E+00  0.00000000E+00
  0.00000000E+00  0.00000000E+00  0.00000000E+00
  0.00000000E+00  0.00000000E+00  0.00000000E+00
  0.00000000E+00  0.00000000E+00  0.00000000E+00
  0.00000000E+00  0.00000000E+00  0.00000000E+00
  0.00000000E+00  0.00000000E+00  0.00000000E+00
  0.00000000E+00  0.00000000E+00  0.00000000E+00
  0.00000000E+00  0.00000000E+00  0.00000000E+00
  0.00000000E+00  0.00000000E+00  0.00000000E+00
  0.00000000E+00  0.00000000E+00  0.00000000E+00
  0.00000000E+00  0.00000000E+00  0.00000000E+00
  0.00000000E+00  0.00000000E+00  0.00000000E+00
  0.00000000E+00  0.00000000E+00  0.00000000E+00
  0.00000000E+00  0.00000000E+00  0.00000000E+00
  0.00000000E+00  0.00000000E+00  0.00000000E+00
  0.00000000E+00  0.00000000E+00  0.00000000E+00
  0.00000000E+00  0.00000000E+00  0.00000000E+00
  0.00000000E+00  0.00000000E+00  0.00000000E+00
  0.00000000E+00  0.00000000E+00  0.00000000E+00
  0.00000000E+00  0.00000000E+00  0.00000000E+00
  0.00000000E+00  0.00000000E+00  0.00000000E+00
  0.00000000E+00  0.00000000E+00  0.00000000E+00
  0.00000000E+00  0.00000000E+00  0.00000000E+00
  0.00000000E+00  0.00000000E+00  0.00000000E+00
  0.00000000E+00  0.00000000E+00  0.00000000E+00
  0.00000000E+00  0.00000000E+00  0.00000000E+00
  0.00000000E+00  0.00000000E+00  0.00000000E+00
  0.00000000E+00  0.00000000E+00  0.00000000E+00
  0.00000000E+00  0.00000000E+00  0.00000000E+00
  0.00000000E+00  0.00000000E+00  0.00000000E+00
  0.00000000E+00  0.00000000E+00  0.00000000E+00
  0.00000000E+00  0.00000000E+00  0.00000000E+00
  0.00000000E+00  0.00000000E+00  0.00000000E+00
  0.00000000E+00  0.00000000E+00  0.00000000E+00
  0.00000000E+00  0.00000000E+00  0.00000000E+00
  0.00000000E+00  0.00000000E+00  0.00000000E+00
  0.00000000E+00  0.00000000E+00  0.00000000E+00
  0.00000000E+00  0.00000000E+00  0.00000000E+00
  0.00000000E+00  0.00000000E+00  0.00000000E+00
  0.00000000E+00  0.00000000E+00  0.00000000E+00
  0.00000000E+00  0.00000000E+00  0.00000000E+00
  0.00000000E+00  0.00000000E+00  0.00000000E+00
  0.00000000E+00  0.00000000E+00  0.00000000E+00
  0.00000000E+00  0.00000000E+00  0.00000000E+00
  0.00000000E+00  0.00000000E+00  0.00000000E+00
  0.00000000E+00  0.00000000E+00  0.00000000E+00
  0.00000000E+00  0.00000000E+00  0.00000000E+00
  0.00000000E+00  0.00000000E+00  0.00000000E+00
  0.00000000E+00  0.00000000E+00  0.00000000E+00
  0.00000000E+00  0.00000000E+00  0.00000000E+00
  0.00000000E+00  0.00000000E+00  0.00000000E+00
  0.00000000E+00  0.00000000E+00  0.00000000E+00
  0.00000000E+00  0.00000000E+00  0.00000000E+00
  0.00000000E+00  0.00000000E+00  0.00000000E+00
  0.00000000E+00  0.00000000E+00  0.00000000E+00
  0.00000000E+00  0.00000000E+00  0.00000000E+00
  0.00000000E+00  0.00000000E+00  0.00000000E+00
  0.00000000E+00  0.00000000E+00  0.00000000E+00
  0.00000000E+00  0.00000000E+00  0.00000000E+00
  0.00000000E+00  0.00000000E+00  0.00000000E+00
  0.00000000E+00  0.00000000E+00  0.00000000E+00
  0.00000000E+00  0.00000000E+00  0.00000000E+00
  0.00000000E+00  0.00000000E+00  0.00000000E+00
  0.00000000E+00  0.00000000E+00  0.00000000E+00
  0.00000000E+00  0.00000000E+00  0.00000000E+00
  0.00000000E+00  0.00000000E+00  0.00000000E+00
  0.00000000E+00  0.00000000E+00  0.00000000E+00
  0.00000000E+00  0.00000000E+00  0.00000000E+00
  0.00000000E+00  0.00000000E+00  0.00000000E+00
  0.00000000E+00  0.00000000E+00  0.00000000E+00
  0.00000000E+00  0.00000000E+00  0.00000000E+00
  0.00000000E+00  0.00000000E+00  0.00000000E+00
  0.00000000E+00  0.00000000E+00  0.00000000E+00
  0.00000000E+00  0.00000000E+00  0.00000000E+00
  0.00000000E+00  0.00000000E+00  0.00000000E+00
  0.00000000E+00  0.00000000E+00  0.00000000E+00
  0.00000000E+00  0.00000000E+00  0.00000000E+00
  0.00000000E+00  0.00000000E+00  0.00000000E+00
  0.00000000E+00  0.00000000E+00  0.00000000E+00
  0.00000000E+00  0.00000000E+00  0.00000000E+00
  0.00000000E+00  0.00000000E+00  0.00000000E+00
