K Cu48 H99 N O50                        
   1.00000000000000     
    10.2239000000000004    0.0000000000000000    0.0000000000000000
     0.0000000000000000   10.2239000000000004    0.0000000000000000
     0.0000000000000000    0.0000000000000000   37.6114999999999995
   Cu   O    H    K    N 
    48    50    99     1     1
Selective dynamics
Direct
  0.7579300000000018  0.7579300000000018  0.0480500000000035   F   F   F
  0.0079300000000018  0.7579300000000018  0.0480500000000035   F   F   F
  0.2579300000000018  0.7579300000000018  0.0480500000000035   F   F   F
  0.5079300000000018  0.7579300000000018  0.0480500000000035   F   F   F
  0.7579300000000018  0.0079300000000018  0.0480500000000035   F   F   F
  0.0079300000000018  0.0079300000000018  0.0480500000000035   F   F   F
  0.2579300000000018  0.0079300000000018  0.0480500000000035   F   F   F
  0.5079300000000018  0.0079300000000018  0.0480500000000035   F   F   F
  0.7579300000000018  0.2579300000000018  0.0480500000000035   F   F   F
  0.0079300000000018  0.2579300000000018  0.0480500000000035   F   F   F
  0.2579300000000018  0.2579300000000018  0.0480500000000035   F   F   F
  0.5079300000000018  0.2579300000000018  0.0480500000000035   F   F   F
  0.7579300000000018  0.5079300000000018  0.0480500000000035   F   F   F
  0.0079300000000018  0.5079300000000018  0.0480500000000035   F   F   F
  0.2579300000000018  0.5079300000000018  0.0480500000000035   F   F   F
  0.5079300000000018  0.5079300000000018  0.0480500000000035   F   F   F
  0.7614552400423706  0.7661138477695959  0.1452767054529894   T   T   T
  0.8804744763871536  0.8808643125149634  0.0951171972138692   T   T   T
  0.0097085432847407  0.7580236167767828  0.1417940951355489   T   T   T
  0.1321361056894944  0.8838686119002405  0.0953959217162531   T   T   T
  0.2536783242041616  0.7575690279379993  0.1415223819314397   T   T   T
  0.3844451201581310  0.8805076319121041  0.0945876935369968   T   T   T
  0.5006513535558468  0.7660255967771542  0.1439968315355080   T   T   T
  0.6333717773810990  0.8823155088475302  0.0961167188078638   T   T   T
  0.7574448759456230  0.0131509379711689  0.1423253323217609   T   T   T
  0.8848541889230376  0.1327198577802571  0.0954516999171069   T   T   T
  0.0070895423889595  0.0066316846797262  0.1423056109340426   T   T   T
  0.1324323520457365  0.1326366662046549  0.0942527457253705   T   T   T
  0.2585024897207703  0.0060960044382242  0.1418443054092589   T   T   T
  0.3811292902710420  0.1329068383490945  0.0951247791995579   T   T   T
  0.5068682480758808  0.0120039217524754  0.1413504642191983   T   T   T
  0.6333834801243440  0.1328751295187725  0.0938190725656370   T   T   T
  0.7590710042015643  0.2563391889939918  0.1412024066563221   T   T   T
  0.8809631489543676  0.3868382815559362  0.0949734056518612   T   T   T
  0.0074420790909548  0.2603057396179942  0.1418568514400743   T   T   T
  0.1325637203639732  0.3821172185459727  0.0953064631527325   T   T   T
  0.2590245734459214  0.2598355974713121  0.1413253205814831   T   T   T
  0.3860231965757765  0.3858458854678351  0.0947271002235484   T   T   T
  0.5085318468365690  0.2545821292247831  0.1412825336463332   T   T   T
  0.6334298073488108  0.3858747764346026  0.0961567203415672   T   T   T
  0.7671988212950669  0.5033781843232176  0.1459200192667200   T   T   T
  0.8794904867313736  0.6333769009659321  0.0968528158664421   T   T   T
  0.0120259158669335  0.5085259846747622  0.1420141686052077   T   T   T
  0.1324110407494014  0.6327982543892923  0.0938883117484023   T   T   T
  0.2555487368635068  0.5075801921640275  0.1413113233314624   T   T   T
  0.3859850662509392  0.6324852235583931  0.0966457397399555   T   T   T
  0.5011038348015578  0.4998338879983391  0.1455916333050868   T   T   T
  0.6326488523635879  0.6338419193576101  0.0945859406980625   T   T   T
  0.5979800436947927  0.9640078961724301  0.4418433358239968   T   T   T
  0.2940996281672638  0.3025882911436122  0.2909367234843492   T   T   T
  0.0372102820413683  0.0814331152351886  0.5144636904254889   T   T   T
  0.4033687594440277  0.3105825331610031  0.4463745686685168   T   T   T
  0.5421377231194687  0.6919500469612295  0.3907301582228068   T   T   T
  0.1018531355461938  0.4838943153121005  0.3135100335582005   T   T   T
  0.3361846119299838  0.2805896812320768  0.3762692335903148   T   T   T
  0.7249358757014025  0.3284069406454210  0.2306888496052285   T   T   T
  0.1510028807586226  0.3270146287631309  0.2243804273552981   T   T   T
  0.8109851000111837  0.0629042404260617  0.2353434205858818   T   T   T
  0.5642242691995188  0.5521319470396245  0.5314264936422244   T   T   T
  0.8104191735063367  0.8844506969079680  0.3190120982517326   T   T   T
  0.6165466650493259  0.9443380664924244  0.3682541948888822   T   T   T
  0.7970300779260857  0.7995000352426882  0.4595881719165690   T   T   T
  0.9742094111747786  0.0743183443328280  0.3001281880878291   T   T   T
  0.2418715482519644  0.9142976227485647  0.2973337835201598   T   T   T
  0.2284231268670842  0.0412948315209849  0.3657894375057352   T   T   T
  0.7227462126731632  0.3208694948924039  0.3624018039370964   T   T   T
  0.5497975790373312  0.6226498342722827  0.2870273514521031   T   T   T
  0.1027424497794116  0.3933633084763843  0.5312760212291102   T   T   T
  0.5554796812880923  0.2915649846206591  0.5469756496423600   T   T   T
  0.2018141689715565  0.6975930569133104  0.4334440570796130   T   T   T
  0.5285443009521704  0.1704985082001766  0.3363765032337692   T   T   T
  0.4000381716677516  0.5619000803524852  0.4744619986754375   T   T   T
  0.1063323175751939  0.8913306618377945  0.2366505158636571   T   T   T
  0.9159578471711787  0.7052611899749548  0.2274077241205853   T   T   T
  0.4679334861634165  0.4024883296288789  0.2448404123650402   T   T   T
  0.6998719687928512  0.5743720287991081  0.3452224146633917   T   T   T
  0.3703157906004612  0.6302688472323333  0.2195756840219468   T   T   T
  0.4792337671313029  0.0067635781542963  0.2781353121703172   T   T   T
  0.6707957636556637  0.3403289573744646  0.4337501897146043   T   T   T
  0.1179215464061248  0.6321347721232331  0.5029069098199783   T   T   T
  0.3407257318630422  0.9260128571713555  0.4258918460613871   T   T   T
  0.9874826313345582  0.0943698284804022  0.4167068886626615   T   T   T
 -0.0280981579690889  0.2446054276488444  0.3532680688886833   T   T   T
  0.6269836346006334  0.1015670415321672  0.5050203519034349   T   T   T
  0.2989619886863367  0.6625018947928281  0.3135461889968335   T   T   T
  0.3988979021367636  0.1492660701496472  0.2209295331624990   T   T   T
  0.8430910704936698  0.1915290358159595  0.4707343791102722   T   T   T
  0.9369583501861297  0.6750076463906067  0.3501005567255420   T   T   T
  0.9410405665999255  0.8342525210463876  0.5202512278961940   T   T   T
  0.3070136670952535  0.5587316947446110  0.3790924287241495   T   T   T
  0.2120859020296813  0.1229724696976717  0.4583833095766188   T   T   T
  0.9546270429878091  0.4595734612166031  0.2527051619322182   T   T   T
  0.9871088627463657  0.8221636504113764  0.4097900899610297   T   T   T
  0.6667715643858704  0.5759888244542598  0.4660187784478673   T   T   T
  0.3116225602701775  0.3214512702672106  0.5750083804437924   T   T   T
  0.8574879287349320  0.4164004887543952  0.5634312342201255   T   T   T
  0.7655116544497664  0.6629713706400622  0.5708551700795247   T   T   T
  0.6257124802221851  0.7100670342029595  0.1825671652581161   T   T   T
  0.6679213906516173  0.9003349593111112  0.4488696491034384   T   T   T
  0.5930053610219761  0.0258146131703702  0.4620510983871434   T   T   T
  0.2262555313459843  0.3594101876200096  0.3018846740933026   T   T   T
  0.3448117236575564  0.2647465637430554  0.3103663778840628   T   T   T
  0.9671868995441144  0.1278918137153234  0.5012120865555852   T   T   T
  0.1117321223519725  0.0830420701224066  0.4974404530721805   T   T   T
  0.3354029358194807  0.2485350957037785  0.4551437826387212   T   T   T
  0.3885106687199613  0.3968692253061381  0.4578970175894179   T   T   T
  0.5379153398885573  0.7808233737896734  0.3804505085451978   T   T   T
  0.4564410124985059  0.6484136474615319  0.3871371821570359   T   T   T
  0.1698395582824583  0.5522299216548812  0.3086808443091819   T   T   T
  0.0435227980130709  0.4788371332613989  0.2922082803895553   T   T   T
  0.2818661130893811  0.1992140951927920  0.3739600486527562   T   T   T
  0.3621047420453625  0.2884103316459238  0.4018277118714434   T   T   T
  0.6326653969093827  0.3490604483847909  0.2368288309861519   T   T   T
  0.7306859774735659  0.3373436491144562  0.2046247975086796   T   T   T
  0.1990429007433374  0.2590210767682333  0.2372727395135611   T   T   T
  0.1500405362374241  0.3008731114117782  0.1992006464121928   T   T   T
  0.7749367412672360  0.1521723493874802  0.2344284397838369   T   T   T
  0.8845579358982423  0.0695906063403908  0.2520739501186929   T   T   T
  0.6156979073079427  0.6042173980402459  0.5487295987355121   T   T   T
  0.6176211807135253  0.5567104046608200  0.5091102375189103   T   T   T
  0.8634828164041951  0.8099771857671552  0.3279655798040536   T   T   T
  0.7479679677267315  0.9060231179362507  0.3384970637127900   T   T   T
  0.6252068425793501  0.9694004265158265  0.3935790450458231   T   T   T
  0.5765829038784173  0.0223510616718138  0.3565698287512271   T   T   T
  0.8441470592796960  0.8139871660664030  0.4825007761843798   T   T   T
  0.7557208924995891  0.7105430972827944  0.4612336020088740   T   T   T
  0.9137252356166211  0.0019001603683641  0.3083516034212710   T   T   T
  0.0607178839707877  0.0343077758129879  0.2977594907397964   T   T   T
  0.1946358632889260  0.9012893094927186  0.2740825472720085   T   T   T
  0.3303777358710316  0.9494447535946936  0.2903807205525359   T   T   T
  0.2293834789595485  0.9948652137460098  0.3428673489483912   T   T   T
  0.2744481390694363  0.9860900624771141  0.3834326262318070   T   T   T
  0.7066447705884020  0.3218367479001509  0.3886065759854608   T   T   T
  0.8157218018681824  0.2921298262731619  0.3587564753986628   T   T   T
  0.5362447339810662  0.5402278372136061  0.2739187186260214   T   T   T
  0.6081382590813872  0.6004822005542716  0.3076122804303594   T   T   T
  0.1092509423732932  0.4803585346562544  0.5187130453467056   T   T   T
  0.0997531295296888  0.3244393572438694  0.5133912154903830   T   T   T
  0.5623559421517755  0.3868852634084729  0.5410879868174719   T   T   T
  0.4663212570508847  0.2870731799448770  0.5578417058868835   T   T   T
  0.1197391530225715  0.7429852238778440  0.4248925519693738   T   T   T
  0.2295849815695888  0.6386108724056309  0.4136094049649723   T   T   T
  0.6069865700590605  0.2254196607782137  0.3420787464247793   T   T   T
  0.4601965849932853  0.2071008324632584  0.3526833078553429   T   T   T
  0.4226472811024444  0.5718625007996886  0.4998989853092697   T   T   T
  0.3295613466472678  0.6235233547142452  0.4690006844222410   T   T   T
  0.0402238854290813  0.8206873243078998  0.2330624684501857   T   T   T
  0.1492407536821605  0.9022730404827122  0.2136509235344402   T   T   T
  0.9351833666749645  0.6142223830454990  0.2358635103255547   T   T   T
  0.8987774323542086  0.6955894784227203  0.2017654790485162   T   T   T
  0.4244348798772608  0.4769306609210976  0.2319727471675098   T   T   T
  0.4025259468216320  0.3726279930639214  0.2631774527936303   T   T   T
  0.7051647244357436  0.4788820273565768  0.3512284346334553   T   T   T
  0.6422200234145153  0.6164975142885961  0.3639821080872983   T   T   T
  0.4432591703398134  0.6712510640765034  0.2064273668779914   T   T   T
  0.3024285897829696  0.6213258467549827  0.2012251479728846   T   T   T
  0.4559469986162659  0.0599976339976670  0.2568214428575292   T   T   T
  0.5033083251238507  0.0700945939730904  0.2969261987808564   T   T   T
  0.7334802781377006  0.2859923104576523  0.4479979319057462   T   T   T
  0.5805576120225299  0.3117341970837286  0.4398013188415373   T   T   T
  0.0578370453586209  0.7025996084141169  0.5105571687538494   T   T   T
  0.1345493881780477  0.6471556722541749  0.4773973474429614   T   T   T
  0.4358259524224617  0.9237036071721986  0.4316918671829427   T   T   T
  0.3029836936103031  0.8376328424531783  0.4301562030263740   T   T   T
  0.9906601385007474 -0.0002772899398842  0.4103663080538262   T   T   T
 -0.0095706320116008  0.1437341677927507  0.3939959262548847   T   T   T
  0.0284367873340678  0.3185755998445385  0.3470890085278528   T   T   T
 -0.0224649478529357  0.1813701587850313  0.3324327980855870   T   T   T
  0.6363133336767167  0.0297134117721293  0.5218089014798218   T   T   T
  0.5931660337455109  0.1795076067610069  0.5199185007269077   T   T   T
  0.3874677652332065  0.6489200647492784  0.3027153222228953   T   T   T
  0.2757049111802987  0.7563692272642307  0.3084860661848696   T   T   T
  0.4077235877301945  0.1244436325176714  0.1956390203165885   T   T   T
  0.4302128875610989  0.2407188068732840  0.2225297722623229   T   T   T
  0.7709055581304965  0.1409905876245077  0.4820138081928505   T   T   T
  0.8808700473554228  0.1424514284648224  0.4501285950876886   T   T   T
 -0.0005374527525927  0.6122765356794785  0.3396254072304528   T   T   T
  0.8488737254117907  0.6296610175341850  0.3495200282368766   T   T   T
  0.9782645709237282  0.9255700153364502  0.5216749867503100   T   T   T
  0.8954826782736879  0.8117188576306351  0.5423260090706700   T   T   T
  0.2978312295437671  0.5981404014310380  0.3546717912837597   T   T   T
  0.3062521397810208  0.4624389797914780  0.3759507045645412   T   T   T
  0.2628905842201021  0.0458851432287442  0.4492607572797628   T   T   T
  0.1363226207873500  0.1265549598159716  0.4416988867413898   T   T   T
  0.8703000010241256  0.4137808241618160  0.2490150053952144   T   T   T
  0.0226208963667100  0.4048851421154488  0.2403034026703330   T   T   T
  0.9130362354572694  0.8062199347135622  0.4267708836101449   T   T   T
  0.9670562162106777  0.7711725978339954  0.3877626716023639   T   T   T
  0.5751128997547265  0.5966921488509305  0.4597658248457441   T   T   T
  0.6821623753978279  0.4907920601275583  0.4535329726957884   T   T   T
  0.2393781863529897  0.3508942024333161  0.5590936934396155   T   T   T
  0.2701882357936848  0.2616921106340137  0.5916695256791008   T   T   T
  0.9405444579881947  0.3965058792845714  0.5507445644389953   T   T   T
  0.7917347067917279  0.3539694751560304  0.5554390547866013   T   T   T
  0.8048646346271062  0.5731238237438253  0.5676514918406510   T   T   T
  0.7526754346734162  0.6703018265545031  0.5964328781774312   T   T   T
  0.6386504858309148  0.5317561715744118  0.2047716541700263   T   T   T
  0.6807574387921417  0.8371760129412184  0.2511884632043965   T   T   T
  0.6338443931393239  0.5650094926393573  0.1790898179002675   T   T   T
 
  0.00000000E+00  0.00000000E+00  0.00000000E+00
  0.00000000E+00  0.00000000E+00  0.00000000E+00
  0.00000000E+00  0.00000000E+00  0.00000000E+00
  0.00000000E+00  0.00000000E+00  0.00000000E+00
  0.00000000E+00  0.00000000E+00  0.00000000E+00
  0.00000000E+00  0.00000000E+00  0.00000000E+00
  0.00000000E+00  0.00000000E+00  0.00000000E+00
  0.00000000E+00  0.00000000E+00  0.00000000E+00
  0.00000000E+00  0.00000000E+00  0.00000000E+00
  0.00000000E+00  0.00000000E+00  0.00000000E+00
  0.00000000E+00  0.00000000E+00  0.00000000E+00
  0.00000000E+00  0.00000000E+00  0.00000000E+00
  0.00000000E+00  0.00000000E+00  0.00000000E+00
  0.00000000E+00  0.00000000E+00  0.00000000E+00
  0.00000000E+00  0.00000000E+00  0.00000000E+00
  0.00000000E+00  0.00000000E+00  0.00000000E+00
  0.00000000E+00  0.00000000E+00  0.00000000E+00
  0.00000000E+00  0.00000000E+00  0.00000000E+00
  0.00000000E+00  0.00000000E+00  0.00000000E+00
  0.00000000E+00  0.00000000E+00  0.00000000E+00
  0.00000000E+00  0.00000000E+00  0.00000000E+00
  0.00000000E+00  0.00000000E+00  0.00000000E+00
  0.00000000E+00  0.00000000E+00  0.00000000E+00
  0.00000000E+00  0.00000000E+00  0.00000000E+00
  0.00000000E+00  0.00000000E+00  0.00000000E+00
  0.00000000E+00  0.00000000E+00  0.00000000E+00
  0.00000000E+00  0.00000000E+00  0.00000000E+00
  0.00000000E+00  0.00000000E+00  0.00000000E+00
  0.00000000E+00  0.00000000E+00  0.00000000E+00
  0.00000000E+00  0.00000000E+00  0.00000000E+00
  0.00000000E+00  0.00000000E+00  0.00000000E+00
  0.00000000E+00  0.00000000E+00  0.00000000E+00
  0.00000000E+00  0.00000000E+00  0.00000000E+00
  0.00000000E+00  0.00000000E+00  0.00000000E+00
  0.00000000E+00  0.00000000E+00  0.00000000E+00
  0.00000000E+00  0.00000000E+00  0.00000000E+00
  0.00000000E+00  0.00000000E+00  0.00000000E+00
  0.00000000E+00  0.00000000E+00  0.00000000E+00
  0.00000000E+00  0.00000000E+00  0.00000000E+00
  0.00000000E+00  0.00000000E+00  0.00000000E+00
  0.00000000E+00  0.00000000E+00  0.00000000E+00
  0.00000000E+00  0.00000000E+00  0.00000000E+00
  0.00000000E+00  0.00000000E+00  0.00000000E+00
  0.00000000E+00  0.00000000E+00  0.00000000E+00
  0.00000000E+00  0.00000000E+00  0.00000000E+00
  0.00000000E+00  0.00000000E+00  0.00000000E+00
  0.00000000E+00  0.00000000E+00  0.00000000E+00
  0.00000000E+00  0.00000000E+00  0.00000000E+00
  0.00000000E+00  0.00000000E+00  0.00000000E+00
  0.00000000E+00  0.00000000E+00  0.00000000E+00
  0.00000000E+00  0.00000000E+00  0.00000000E+00
  0.00000000E+00  0.00000000E+00  0.00000000E+00
  0.00000000E+00  0.00000000E+00  0.00000000E+00
  0.00000000E+00  0.00000000E+00  0.00000000E+00
  0.00000000E+00  0.00000000E+00  0.00000000E+00
  0.00000000E+00  0.00000000E+00  0.00000000E+00
  0.00000000E+00  0.00000000E+00  0.00000000E+00
  0.00000000E+00  0.00000000E+00  0.00000000E+00
  0.00000000E+00  0.00000000E+00  0.00000000E+00
  0.00000000E+00  0.00000000E+00  0.00000000E+00
  0.00000000E+00  0.00000000E+00  0.00000000E+00
  0.00000000E+00  0.00000000E+00  0.00000000E+00
  0.00000000E+00  0.00000000E+00  0.00000000E+00
  0.00000000E+00  0.00000000E+00  0.00000000E+00
  0.00000000E+00  0.00000000E+00  0.00000000E+00
  0.00000000E+00  0.00000000E+00  0.00000000E+00
  0.00000000E+00  0.00000000E+00  0.00000000E+00
  0.00000000E+00  0.00000000E+00  0.00000000E+00
  0.00000000E+00  0.00000000E+00  0.00000000E+00
  0.00000000E+00  0.00000000E+00  0.00000000E+00
  0.00000000E+00  0.00000000E+00  0.00000000E+00
  0.00000000E+00  0.00000000E+00  0.00000000E+00
  0.00000000E+00  0.00000000E+00  0.00000000E+00
  0.00000000E+00  0.00000000E+00  0.00000000E+00
  0.00000000E+00  0.00000000E+00  0.00000000E+00
  0.00000000E+00  0.00000000E+00  0.00000000E+00
  0.00000000E+00  0.00000000E+00  0.00000000E+00
  0.00000000E+00  0.00000000E+00  0.00000000E+00
  0.00000000E+00  0.00000000E+00  0.00000000E+00
  0.00000000E+00  0.00000000E+00  0.00000000E+00
  0.00000000E+00  0.00000000E+00  0.00000000E+00
  0.00000000E+00  0.00000000E+00  0.00000000E+00
  0.00000000E+00  0.00000000E+00  0.00000000E+00
  0.00000000E+00  0.00000000E+00  0.00000000E+00
  0.00000000E+00  0.00000000E+00  0.00000000E+00
  0.00000000E+00  0.00000000E+00  0.00000000E+00
  0.00000000E+00  0.00000000E+00  0.00000000E+00
  0.00000000E+00  0.00000000E+00  0.00000000E+00
  0.00000000E+00  0.00000000E+00  0.00000000E+00
  0.00000000E+00  0.00000000E+00  0.00000000E+00
  0.00000000E+00  0.00000000E+00  0.00000000E+00
  0.00000000E+00  0.00000000E+00  0.00000000E+00
  0.00000000E+00  0.00000000E+00  0.00000000E+00
  0.00000000E+00  0.00000000E+00  0.00000000E+00
  0.00000000E+00  0.00000000E+00  0.00000000E+00
  0.00000000E+00  0.00000000E+00  0.00000000E+00
  0.00000000E+00  0.00000000E+00  0.00000000E+00
  0.00000000E+00  0.00000000E+00  0.00000000E+00
  0.00000000E+00  0.00000000E+00  0.00000000E+00
  0.00000000E+00  0.00000000E+00  0.00000000E+00
  0.00000000E+00  0.00000000E+00  0.00000000E+00
  0.00000000E+00  0.00000000E+00  0.00000000E+00
  0.00000000E+00  0.00000000E+00  0.00000000E+00
  0.00000000E+00  0.00000000E+00  0.00000000E+00
  0.00000000E+00  0.00000000E+00  0.00000000E+00
  0.00000000E+00  0.00000000E+00  0.00000000E+00
  0.00000000E+00  0.00000000E+00  0.00000000E+00
  0.00000000E+00  0.00000000E+00  0.00000000E+00
  0.00000000E+00  0.00000000E+00  0.00000000E+00
  0.00000000E+00  0.00000000E+00  0.00000000E+00
  0.00000000E+00  0.00000000E+00  0.00000000E+00
  0.00000000E+00  0.00000000E+00  0.00000000E+00
  0.00000000E+00  0.00000000E+00  0.00000000E+00
  0.00000000E+00  0.00000000E+00  0.00000000E+00
  0.00000000E+00  0.00000000E+00  0.00000000E+00
  0.00000000E+00  0.00000000E+00  0.00000000E+00
  0.00000000E+00  0.00000000E+00  0.00000000E+00
  0.00000000E+00  0.00000000E+00  0.00000000E+00
  0.00000000E+00  0.00000000E+00  0.00000000E+00
  0.00000000E+00  0.00000000E+00  0.00000000E+00
  0.00000000E+00  0.00000000E+00  0.00000000E+00
  0.00000000E+00  0.00000000E+00  0.00000000E+00
  0.00000000E+00  0.00000000E+00  0.00000000E+00
  0.00000000E+00  0.00000000E+00  0.00000000E+00
  0.00000000E+00  0.00000000E+00  0.00000000E+00
  0.00000000E+00  0.00000000E+00  0.00000000E+00
  0.00000000E+00  0.00000000E+00  0.00000000E+00
  0.00000000E+00  0.00000000E+00  0.00000000E+00
  0.00000000E+00  0.00000000E+00  0.00000000E+00
  0.00000000E+00  0.00000000E+00  0.00000000E+00
  0.00000000E+00  0.00000000E+00  0.00000000E+00
  0.00000000E+00  0.00000000E+00  0.00000000E+00
  0.00000000E+00  0.00000000E+00  0.00000000E+00
  0.00000000E+00  0.00000000E+00  0.00000000E+00
  0.00000000E+00  0.00000000E+00  0.00000000E+00
  0.00000000E+00  0.00000000E+00  0.00000000E+00
  0.00000000E+00  0.00000000E+00  0.00000000E+00
  0.00000000E+00  0.00000000E+00  0.00000000E+00
  0.00000000E+00  0.00000000E+00  0.00000000E+00
  0.00000000E+00  0.00000000E+00  0.00000000E+00
  0.00000000E+00  0.00000000E+00  0.00000000E+00
  0.00000000E+00  0.00000000E+00  0.00000000E+00
  0.00000000E+00  0.00000000E+00  0.00000000E+00
  0.00000000E+00  0.00000000E+00  0.00000000E+00
  0.00000000E+00  0.00000000E+00  0.00000000E+00
  0.00000000E+00  0.00000000E+00  0.00000000E+00
  0.00000000E+00  0.00000000E+00  0.00000000E+00
  0.00000000E+00  0.00000000E+00  0.00000000E+00
  0.00000000E+00  0.00000000E+00  0.00000000E+00
  0.00000000E+00  0.00000000E+00  0.00000000E+00
  0.00000000E+00  0.00000000E+00  0.00000000E+00
  0.00000000E+00  0.00000000E+00  0.00000000E+00
  0.00000000E+00  0.00000000E+00  0.00000000E+00
  0.00000000E+00  0.00000000E+00  0.00000000E+00
  0.00000000E+00  0.00000000E+00  0.00000000E+00
  0.00000000E+00  0.00000000E+00  0.00000000E+00
  0.00000000E+00  0.00000000E+00  0.00000000E+00
  0.00000000E+00  0.00000000E+00  0.00000000E+00
  0.00000000E+00  0.00000000E+00  0.00000000E+00
  0.00000000E+00  0.00000000E+00  0.00000000E+00
  0.00000000E+00  0.00000000E+00  0.00000000E+00
  0.00000000E+00  0.00000000E+00  0.00000000E+00
  0.00000000E+00  0.00000000E+00  0.00000000E+00
  0.00000000E+00  0.00000000E+00  0.00000000E+00
  0.00000000E+00  0.00000000E+00  0.00000000E+00
  0.00000000E+00  0.00000000E+00  0.00000000E+00
  0.00000000E+00  0.00000000E+00  0.00000000E+00
  0.00000000E+00  0.00000000E+00  0.00000000E+00
  0.00000000E+00  0.00000000E+00  0.00000000E+00
  0.00000000E+00  0.00000000E+00  0.00000000E+00
  0.00000000E+00  0.00000000E+00  0.00000000E+00
  0.00000000E+00  0.00000000E+00  0.00000000E+00
  0.00000000E+00  0.00000000E+00  0.00000000E+00
  0.00000000E+00  0.00000000E+00  0.00000000E+00
  0.00000000E+00  0.00000000E+00  0.00000000E+00
  0.00000000E+00  0.00000000E+00  0.00000000E+00
  0.00000000E+00  0.00000000E+00  0.00000000E+00
  0.00000000E+00  0.00000000E+00  0.00000000E+00
  0.00000000E+00  0.00000000E+00  0.00000000E+00
  0.00000000E+00  0.00000000E+00  0.00000000E+00
  0.00000000E+00  0.00000000E+00  0.00000000E+00
  0.00000000E+00  0.00000000E+00  0.00000000E+00
  0.00000000E+00  0.00000000E+00  0.00000000E+00
  0.00000000E+00  0.00000000E+00  0.00000000E+00
  0.00000000E+00  0.00000000E+00  0.00000000E+00
  0.00000000E+00  0.00000000E+00  0.00000000E+00
  0.00000000E+00  0.00000000E+00  0.00000000E+00
  0.00000000E+00  0.00000000E+00  0.00000000E+00
  0.00000000E+00  0.00000000E+00  0.00000000E+00
  0.00000000E+00  0.00000000E+00  0.00000000E+00
  0.00000000E+00  0.00000000E+00  0.00000000E+00
  0.00000000E+00  0.00000000E+00  0.00000000E+00
  0.00000000E+00  0.00000000E+00  0.00000000E+00
  0.00000000E+00  0.00000000E+00  0.00000000E+00
  0.00000000E+00  0.00000000E+00  0.00000000E+00
  0.00000000E+00  0.00000000E+00  0.00000000E+00
  0.00000000E+00  0.00000000E+00  0.00000000E+00
  0.00000000E+00  0.00000000E+00  0.00000000E+00
  0.00000000E+00  0.00000000E+00  0.00000000E+00
