K Cu48 H100 N O50                       
   1.00000000000000     
    10.2239000000000004    0.0000000000000000    0.0000000000000000
     0.0000000000000000   10.2239000000000004    0.0000000000000000
     0.0000000000000000    0.0000000000000000   37.6114999999999995
   Cu   O    H    K    N 
    48    50   100     1     1
Selective dynamics
Direct
  0.7579300000000018  0.7579300000000018  0.0480500000000035   F   F   F
  0.0079300000000018  0.7579300000000018  0.0480500000000035   F   F   F
  0.2579300000000018  0.7579300000000018  0.0480500000000035   F   F   F
  0.5079300000000018  0.7579300000000018  0.0480500000000035   F   F   F
  0.7579300000000018  0.0079300000000018  0.0480500000000035   F   F   F
  0.0079300000000018  0.0079300000000018  0.0480500000000035   F   F   F
  0.2579300000000018  0.0079300000000018  0.0480500000000035   F   F   F
  0.5079300000000018  0.0079300000000018  0.0480500000000035   F   F   F
  0.7579300000000018  0.2579300000000018  0.0480500000000035   F   F   F
  0.0079300000000018  0.2579300000000018  0.0480500000000035   F   F   F
  0.2579300000000018  0.2579300000000018  0.0480500000000035   F   F   F
  0.5079300000000018  0.2579300000000018  0.0480500000000035   F   F   F
  0.7579300000000018  0.5079300000000018  0.0480500000000035   F   F   F
  0.0079300000000018  0.5079300000000018  0.0480500000000035   F   F   F
  0.2579300000000018  0.5079300000000018  0.0480500000000035   F   F   F
  0.5079300000000018  0.5079300000000018  0.0480500000000035   F   F   F
  0.7662515156087254  0.7609160002524553  0.1409237637246492   T   T   T
  0.8859350711263627  0.8840696694229793  0.0946117016533576   T   T   T
  0.0102236183221940  0.7559877908056555  0.1419222598309102   T   T   T
  0.1351354072846520  0.8833320749349569  0.0947111638380338   T   T   T
  0.2562545694480787  0.7511993533171043  0.1410612136731006   T   T   T
  0.3835413895077124  0.8829528035886064  0.0955994327040083   T   T   T
  0.5149035119188052  0.7546306491350236  0.1451134919015828   T   T   T
  0.6326417919736398  0.8835259392125412  0.0950983329703546   T   T   T
  0.7626957018973864  0.0078747066405101  0.1414069830733736   T   T   T
  0.8803604698173559  0.1377560348974089  0.0956565943726852   T   T   T
  0.0070933161525974  0.0058599553769295  0.1429685987681170   T   T   T
  0.1320401373128043  0.1323542564312781  0.0948131838686383   T   T   T
  0.2544929391048093  0.0128755899291578  0.1420440699295708   T   T   T
  0.3859644636420684  0.1331637713553745  0.0956177343955819   T   T   T
  0.5076411014653064  0.0081073753501562  0.1442911425055382   T   T   T
  0.6310239648982539  0.1305940736184164  0.0960017714816327   T   T   T
  0.7576698528258122  0.2581436485328720  0.1444421230904445   T   T   T
  0.8810409066247304  0.3832767720917944  0.0958564081378512   T   T   T
  0.0096913027659762  0.2562902265877497  0.1424128005228908   T   T   T
  0.1297751825741978  0.3825853864543235  0.0946441357785983   T   T   T
  0.2560510446017118  0.2599612097224965  0.1411526238780449   T   T   T
  0.3817741127646608  0.3827362469574661  0.0947653727793826   T   T   T
  0.5048098186204510  0.2600328115776447  0.1427638398721316   T   T   T
  0.6334158199808003  0.3830628623779415  0.0926864656337680   T   T   T
  0.7571888867045674  0.5140025122119487  0.1442586873804063   T   T   T
  0.8809141768210740  0.6286058360248132  0.0950800784048169   T   T   T
  0.0092732850939590  0.5084892916828430  0.1423948952765890   T   T   T
  0.1324978524682175  0.6322382715534768  0.0943271237237912   T   T   T
  0.2553038019677057  0.5058476305005195  0.1414514651029772   T   T   T
  0.3866425410116332  0.6328710459930806  0.0953015632093325   T   T   T
  0.5030581319543440  0.5084630202539422  0.1425994362097310   T   T   T
  0.6325164318774464  0.6358830479424228  0.0956367164749470   T   T   T
  0.6001889540030937  0.9623227693401610  0.4436133885548782   T   T   T
  0.3039669740121816  0.2937127146066252  0.2892096354245424   T   T   T
  0.0359910594355525  0.1117419424677006  0.5142898862902825   T   T   T
  0.3945775563018454  0.3148701015549692  0.4472950736776742   T   T   T
  0.5510157404951234  0.6936955297805649  0.3892885069824938   T   T   T
  0.1025290167708209  0.4748754117133258  0.3146540494322210   T   T   T
  0.3141008891282752  0.2983094902170065  0.3788121980164338   T   T   T
  0.7597596512405838  0.3204813479027349  0.2379035674518880   T   T   T
  0.1753559595161594  0.3381957543081128  0.2224496149074924   T   T   T
  0.8256848763218027  0.0522693511218354  0.2393389591435799   T   T   T
  0.5694953391833762  0.5558635970272213  0.5360326455896465   T   T   T
  0.8135654772910172  0.8948649416236254  0.3203641479122188   T   T   T
  0.6165467105026097  0.9505360177361429  0.3704452632370591   T   T   T
  0.7999167229609877  0.8004038509562275  0.4617727685238438   T   T   T
  0.9895938477378052  0.0767490278803881  0.3038338024773465   T   T   T
  0.2400885359938289  0.9061293257004470  0.3028437619346218   T   T   T
  0.2309419780086249  0.0471792362372139  0.3686277566281753   T   T   T
  0.7138613252180558  0.3180288666283141  0.3641739954014380   T   T   T
  0.5525602818744232  0.6191288887111532  0.2843966476211180   T   T   T
  0.1126130058665799  0.3994717550656939  0.5347043261539378   T   T   T
  0.5522655771633456  0.2939286563109236  0.5456657511939484   T   T   T
  0.1979981370309561  0.6988610318960348  0.4329275930799548   T   T   T
  0.5094864794876351  0.1786357769749073  0.3416808882892910   T   T   T
  0.3895803981238261  0.5642915860126997  0.4755549713663349   T   T   T
  0.1185607447453808  0.8794278308285991  0.2411033062212311   T   T   T
  0.9019663150494135  0.7196749698474748  0.2274273722320526   T   T   T
  0.4815508578219784  0.4000650808940972  0.2447565730957502   T   T   T
  0.6960287647756616  0.5661301576168107  0.3428247700526090   T   T   T
  0.3009502674315950  0.6861567069511398  0.2228147697640600   T   T   T
  0.4754196633968251  0.0037423083673296  0.2854478184448790   T   T   T
  0.6628405754657566  0.3473596630591724  0.4346507384559017   T   T   T
  0.1054134260313550  0.6359198200959520  0.5022566572297402   T   T   T
  0.3416266991808947  0.9244825805115081  0.4284651644209201   T   T   T
  0.9891889202436729  0.0985176044487540  0.4166649284297090   T   T   T
 -0.0328295773419552  0.2548206299642833  0.3544869167016934   T   T   T
  0.6250578885148134  0.1037859653598054  0.5052529186938329   T   T   T
  0.3054911362798980  0.6508705555426108  0.3070147559357415   T   T   T
  0.4207303249637854  0.1122264889386587  0.2229206104769840   T   T   T
  0.8361014052442768  0.1933468529589405  0.4694540813691721   T   T   T
  0.9278766175868534  0.6768102514684136  0.3502505051495592   T   T   T
  0.9512581855768284  0.8594099013939278  0.5212386058241200   T   T   T
  0.3081409921330330  0.5748732318271229  0.3766460987008924   T   T   T
  0.2121045009749233  0.1225690688201105  0.4591167322417948   T   T   T
  0.9752727442420344  0.4742279310911897  0.2515120797832464   T   T   T
  0.9835031043556157  0.8239797704162938  0.4104719095796024   T   T   T
  0.6598989806778222  0.5845394119046894  0.4677070275979733   T   T   T
  0.3064197749681767  0.2822243175101396  0.5746131258270903   T   T   T
  0.8558735872042138  0.4136866464323297  0.5540751064481911   T   T   T
  0.7761285266784210  0.6411663832955570  0.5803620041924286   T   T   T
  0.4907645151080263  0.8811339419353906  0.1867550784042487   T   T   T
  0.6712458221678091  0.9004242333825019  0.4509799860093440   T   T   T
  0.5937224574314698  0.0261588093881073  0.4633806656276175   T   T   T
  0.2366175616303421  0.3475742293802973  0.3011667612677185   T   T   T
  0.3574539575201791  0.2539444922748634  0.3079458764360539   T   T   T
  0.9638967262685557  0.1488950794919411  0.4996338816469725   T   T   T
  0.1102200827177082  0.1053679772397783  0.4971495918967253   T   T   T
  0.3304021399680198  0.2491673196769566  0.4563174684405504   T   T   T
  0.3789185055285456  0.3994792379670937  0.4595761543830952   T   T   T
  0.5511097734799694  0.7849352565492653  0.3804524345823109   T   T   T
  0.4620526294184386  0.6570913478711962  0.3862430744543207   T   T   T
  0.1733875937516335  0.5397826991068652  0.3105904606084176   T   T   T
  0.0491027747724321  0.4755358721072044  0.2922028433544422   T   T   T
  0.2641776642401032  0.2148632488338307  0.3759030500128941   T   T   T
  0.3402914755849120  0.3035835742226828  0.4044247471767251   T   T   T
  0.6693089705083343  0.3418099216146459  0.2447240296697190   T   T   T
  0.7590939679543030  0.3279692976629354  0.2117326026091816   T   T   T
  0.2035253658016334  0.2618800825717806  0.2362435625002629   T   T   T
  0.1590797251795414  0.3064157474674887  0.1979527716301034   T   T   T
  0.7970695125096933  0.1441168660827892  0.2386999714671676   T   T   T
  0.9002390354795541  0.0539780439546116  0.2557862302775184   T   T   T
  0.6245896401846950  0.5913859114728833  0.5554036163215866   T   T   T
  0.6240157932471582  0.5649460064507821  0.5143069632455839   T   T   T
  0.8616781081474904  0.8171243970221146  0.3292826250054985   T   T   T
  0.7500289188666693  0.9177903895449270  0.3393830674061330   T   T   T
  0.6255075358294599  0.9714791610090722  0.3960873129713571   T   T   T
  0.5673708076195643  0.0260388358783496  0.3605063972487429   T   T   T
  0.8461488817632566  0.8174876977239226  0.4845346248004612   T   T   T
  0.7542578386031784  0.7131629895595026  0.4636957989690526   T   T   T
  0.9252980700465384  0.0067763955149251  0.3114548506771077   T   T   T
  0.0763368243467940  0.0363759817721959  0.3052601797485546   T   T   T
  0.1878409591965619  0.8972483387867207  0.2799240600447175   T   T   T
  0.3268889205006486  0.9451905848970128  0.2955513514358987   T   T   T
  0.2315933653916579  0.9944764054070578  0.3466822219370279   T   T   T
  0.2770000185578896  0.9955405131170415  0.3870405397220907   T   T   T
  0.6984014080502415  0.3246971614662757  0.3904322447285692   T   T   T
  0.8075245482222987  0.2913555072465652  0.3604919533170107   T   T   T
  0.5386592087132850  0.5400542629939070  0.2696487428543662   T   T   T
  0.6094991586741973  0.5924495289225304  0.3049779268289267   T   T   T
  0.1118995940550859  0.4835616581235251  0.5209102677959873   T   T   T
  0.1036234166925787  0.3257883767442167  0.5182858948099722   T   T   T
  0.5633953672901736  0.3898625961384352  0.5410572804596860   T   T   T
  0.4636763975470184  0.2856227807739113  0.5564219691879894   T   T   T
  0.1155481400471494  0.7457193143023150  0.4249906264438543   T   T   T
  0.2276923916263267  0.6478845293979626  0.4117214026851449   T   T   T
  0.5910192345172365  0.2299618962061818  0.3470441416857220   T   T   T
  0.4417415305861924  0.2193554682431397  0.3574571629011806   T   T   T
  0.4021008835491233  0.5746297128130160  0.5012354834728857   T   T   T
  0.3162650571070167  0.6207424170486722  0.4684158113208235   T   T   T
  0.0339654819467279  0.8329354804716960  0.2378833240163386   T   T   T
  0.1820562937131901  0.8205594216329303  0.2294691114425377   T   T   T
  0.9312027522344415  0.6298677468262291  0.2342934555397917   T   T   T
  0.9004161635797895  0.7192261044884468  0.2012402453006124   T   T   T
  0.4340263596263544  0.4331273673510774  0.2240199795839755   T   T   T
  0.4119261713515713  0.3632564924851039  0.2609517092536129   T   T   T
  0.7005644864023520  0.4716207433672657  0.3501485932110207   T   T   T
  0.6404725531337346  0.6119097163915673  0.3614791142912300   T   T   T
  0.2828167059912193  0.6413626078863854  0.2453165535285837   T   T   T
  0.2695792661703527  0.6293234980481556  0.2034403004759123   T   T   T
  0.4583681158447014  0.0554356739212551  0.2632014046626823   T   T   T
  0.4943701791946986  0.0683732195704069  0.3042568654282029   T   T   T
  0.7259941641726355  0.2923609782001240  0.4485926074202265   T   T   T
  0.5727817920581233  0.3185631588848908  0.4407983579246921   T   T   T
  0.0564731854325565  0.7136993729680492  0.5103768298086215   T   T   T
  0.1206320885951972  0.6482393141809322  0.4766325264313949   T   T   T
  0.4367927887763419  0.9196451123450803  0.4341306747963584   T   T   T
  0.3013127952170958  0.8368310468503799  0.4319963902562706   T   T   T
  0.9918941063845710  0.0051780751997759  0.4093564632209671   T   T   T
 -0.0081485762539154  0.1516768996976577  0.3945436745714028   T   T   T
  0.0197993663041750  0.3313771893759107  0.3475839563249399   T   T   T
 -0.0210448450570282  0.1892926815677515  0.3344606665330327   T   T   T
  0.6274471600208307  0.0325317555786876  0.5223862631604255   T   T   T
  0.5921572442024529  0.1839390426567536  0.5194649640099195   T   T   T
  0.4000617407119467  0.6412651376091504  0.2993894995409712   T   T   T
  0.2836706035382932  0.7471804434704503  0.3064040795559405   T   T   T
  0.4498288172325854  0.0434824207201862  0.2059218802511019   T   T   T
  0.4555663507659520  0.1949555203310337  0.2139969141654690   T   T   T
  0.7667401072614396  0.1412458359539815  0.4815877865650163   T   T   T
  0.8749784096725106  0.1435667841288377  0.4491665803416905   T   T   T
 -0.0066047609827636  0.6171837579345838  0.3400143077402882   T   T   T
  0.8414587625074488  0.6284641246629112  0.3483010571852139   T   T   T
  0.9853764781964858  0.9522311574766292  0.5211102086156879   T   T   T
  0.9146854190743242  0.8419705438827664  0.5446837130027293   T   T   T
  0.3035865283245903  0.6064151112654476  0.3514639291516552   T   T   T
  0.3007239638485542  0.4782615938832880  0.3754276496757806   T   T   T
  0.2636773993960156  0.0438817087582214  0.4513170982396187   T   T   T
  0.1376453429013625  0.1245837523429490  0.4419328523931227   T   T   T
  0.8941309729107423  0.4210131894222174  0.2495773439354980   T   T   T
  0.0442762837231287  0.4230151520930619  0.2386528809434298   T   T   T
  0.9120830643466378  0.8089290149581312  0.4283165879143003   T   T   T
  0.9603252545511161  0.7717197757776569  0.3889707314823110   T   T   T
  0.5669053991664890  0.6038855187409764  0.4629570322351024   T   T   T
  0.6742297492908226  0.5008390795165450  0.4544992758097011   T   T   T
  0.2375175865774307  0.3354864843350301  0.5628952586638553   T   T   T
  0.2958816507716207  0.2959715471947878  0.5999392720229939   T   T   T
  0.9497141712641027  0.3995015570259038  0.5483144726323643   T   T   T
  0.8123950015889023  0.3291454270628348  0.5543560663096962   T   T   T
  0.8108531416191637  0.5517466056664094  0.5741119001142134   T   T   T
  0.7728451950071247  0.6443331549240702  0.6060788374468373   T   T   T
  0.6118281946921319  0.3973453796365579  0.1926486211120391   T   T   T
  0.4060892688523087  0.8499934135737383  0.1959094511633262   T   T   T
  0.6677916098132235  0.8439783139884477  0.2505099143826562   T   T   T
  0.6334687248739055  0.3850399563185753  0.1662315098055928   T   T   T
 
  0.00000000E+00  0.00000000E+00  0.00000000E+00
  0.00000000E+00  0.00000000E+00  0.00000000E+00
  0.00000000E+00  0.00000000E+00  0.00000000E+00
  0.00000000E+00  0.00000000E+00  0.00000000E+00
  0.00000000E+00  0.00000000E+00  0.00000000E+00
  0.00000000E+00  0.00000000E+00  0.00000000E+00
  0.00000000E+00  0.00000000E+00  0.00000000E+00
  0.00000000E+00  0.00000000E+00  0.00000000E+00
  0.00000000E+00  0.00000000E+00  0.00000000E+00
  0.00000000E+00  0.00000000E+00  0.00000000E+00
  0.00000000E+00  0.00000000E+00  0.00000000E+00
  0.00000000E+00  0.00000000E+00  0.00000000E+00
  0.00000000E+00  0.00000000E+00  0.00000000E+00
  0.00000000E+00  0.00000000E+00  0.00000000E+00
  0.00000000E+00  0.00000000E+00  0.00000000E+00
  0.00000000E+00  0.00000000E+00  0.00000000E+00
  0.00000000E+00  0.00000000E+00  0.00000000E+00
  0.00000000E+00  0.00000000E+00  0.00000000E+00
  0.00000000E+00  0.00000000E+00  0.00000000E+00
  0.00000000E+00  0.00000000E+00  0.00000000E+00
  0.00000000E+00  0.00000000E+00  0.00000000E+00
  0.00000000E+00  0.00000000E+00  0.00000000E+00
  0.00000000E+00  0.00000000E+00  0.00000000E+00
  0.00000000E+00  0.00000000E+00  0.00000000E+00
  0.00000000E+00  0.00000000E+00  0.00000000E+00
  0.00000000E+00  0.00000000E+00  0.00000000E+00
  0.00000000E+00  0.00000000E+00  0.00000000E+00
  0.00000000E+00  0.00000000E+00  0.00000000E+00
  0.00000000E+00  0.00000000E+00  0.00000000E+00
  0.00000000E+00  0.00000000E+00  0.00000000E+00
  0.00000000E+00  0.00000000E+00  0.00000000E+00
  0.00000000E+00  0.00000000E+00  0.00000000E+00
  0.00000000E+00  0.00000000E+00  0.00000000E+00
  0.00000000E+00  0.00000000E+00  0.00000000E+00
  0.00000000E+00  0.00000000E+00  0.00000000E+00
  0.00000000E+00  0.00000000E+00  0.00000000E+00
  0.00000000E+00  0.00000000E+00  0.00000000E+00
  0.00000000E+00  0.00000000E+00  0.00000000E+00
  0.00000000E+00  0.00000000E+00  0.00000000E+00
  0.00000000E+00  0.00000000E+00  0.00000000E+00
  0.00000000E+00  0.00000000E+00  0.00000000E+00
  0.00000000E+00  0.00000000E+00  0.00000000E+00
  0.00000000E+00  0.00000000E+00  0.00000000E+00
  0.00000000E+00  0.00000000E+00  0.00000000E+00
  0.00000000E+00  0.00000000E+00  0.00000000E+00
  0.00000000E+00  0.00000000E+00  0.00000000E+00
  0.00000000E+00  0.00000000E+00  0.00000000E+00
  0.00000000E+00  0.00000000E+00  0.00000000E+00
  0.00000000E+00  0.00000000E+00  0.00000000E+00
  0.00000000E+00  0.00000000E+00  0.00000000E+00
  0.00000000E+00  0.00000000E+00  0.00000000E+00
  0.00000000E+00  0.00000000E+00  0.00000000E+00
  0.00000000E+00  0.00000000E+00  0.00000000E+00
  0.00000000E+00  0.00000000E+00  0.00000000E+00
  0.00000000E+00  0.00000000E+00  0.00000000E+00
  0.00000000E+00  0.00000000E+00  0.00000000E+00
  0.00000000E+00  0.00000000E+00  0.00000000E+00
  0.00000000E+00  0.00000000E+00  0.00000000E+00
  0.00000000E+00  0.00000000E+00  0.00000000E+00
  0.00000000E+00  0.00000000E+00  0.00000000E+00
  0.00000000E+00  0.00000000E+00  0.00000000E+00
  0.00000000E+00  0.00000000E+00  0.00000000E+00
  0.00000000E+00  0.00000000E+00  0.00000000E+00
  0.00000000E+00  0.00000000E+00  0.00000000E+00
  0.00000000E+00  0.00000000E+00  0.00000000E+00
  0.00000000E+00  0.00000000E+00  0.00000000E+00
  0.00000000E+00  0.00000000E+00  0.00000000E+00
  0.00000000E+00  0.00000000E+00  0.00000000E+00
  0.00000000E+00  0.00000000E+00  0.00000000E+00
  0.00000000E+00  0.00000000E+00  0.00000000E+00
  0.00000000E+00  0.00000000E+00  0.00000000E+00
  0.00000000E+00  0.00000000E+00  0.00000000E+00
  0.00000000E+00  0.00000000E+00  0.00000000E+00
  0.00000000E+00  0.00000000E+00  0.00000000E+00
  0.00000000E+00  0.00000000E+00  0.00000000E+00
  0.00000000E+00  0.00000000E+00  0.00000000E+00
  0.00000000E+00  0.00000000E+00  0.00000000E+00
  0.00000000E+00  0.00000000E+00  0.00000000E+00
  0.00000000E+00  0.00000000E+00  0.00000000E+00
  0.00000000E+00  0.00000000E+00  0.00000000E+00
  0.00000000E+00  0.00000000E+00  0.00000000E+00
  0.00000000E+00  0.00000000E+00  0.00000000E+00
  0.00000000E+00  0.00000000E+00  0.00000000E+00
  0.00000000E+00  0.00000000E+00  0.00000000E+00
  0.00000000E+00  0.00000000E+00  0.00000000E+00
  0.00000000E+00  0.00000000E+00  0.00000000E+00
  0.00000000E+00  0.00000000E+00  0.00000000E+00
  0.00000000E+00  0.00000000E+00  0.00000000E+00
  0.00000000E+00  0.00000000E+00  0.00000000E+00
  0.00000000E+00  0.00000000E+00  0.00000000E+00
  0.00000000E+00  0.00000000E+00  0.00000000E+00
  0.00000000E+00  0.00000000E+00  0.00000000E+00
  0.00000000E+00  0.00000000E+00  0.00000000E+00
  0.00000000E+00  0.00000000E+00  0.00000000E+00
  0.00000000E+00  0.00000000E+00  0.00000000E+00
  0.00000000E+00  0.00000000E+00  0.00000000E+00
  0.00000000E+00  0.00000000E+00  0.00000000E+00
  0.00000000E+00  0.00000000E+00  0.00000000E+00
  0.00000000E+00  0.00000000E+00  0.00000000E+00
  0.00000000E+00  0.00000000E+00  0.00000000E+00
  0.00000000E+00  0.00000000E+00  0.00000000E+00
  0.00000000E+00  0.00000000E+00  0.00000000E+00
  0.00000000E+00  0.00000000E+00  0.00000000E+00
  0.00000000E+00  0.00000000E+00  0.00000000E+00
  0.00000000E+00  0.00000000E+00  0.00000000E+00
  0.00000000E+00  0.00000000E+00  0.00000000E+00
  0.00000000E+00  0.00000000E+00  0.00000000E+00
  0.00000000E+00  0.00000000E+00  0.00000000E+00
  0.00000000E+00  0.00000000E+00  0.00000000E+00
  0.00000000E+00  0.00000000E+00  0.00000000E+00
  0.00000000E+00  0.00000000E+00  0.00000000E+00
  0.00000000E+00  0.00000000E+00  0.00000000E+00
  0.00000000E+00  0.00000000E+00  0.00000000E+00
  0.00000000E+00  0.00000000E+00  0.00000000E+00
  0.00000000E+00  0.00000000E+00  0.00000000E+00
  0.00000000E+00  0.00000000E+00  0.00000000E+00
  0.00000000E+00  0.00000000E+00  0.00000000E+00
  0.00000000E+00  0.00000000E+00  0.00000000E+00
  0.00000000E+00  0.00000000E+00  0.00000000E+00
  0.00000000E+00  0.00000000E+00  0.00000000E+00
  0.00000000E+00  0.00000000E+00  0.00000000E+00
  0.00000000E+00  0.00000000E+00  0.00000000E+00
  0.00000000E+00  0.00000000E+00  0.00000000E+00
  0.00000000E+00  0.00000000E+00  0.00000000E+00
  0.00000000E+00  0.00000000E+00  0.00000000E+00
  0.00000000E+00  0.00000000E+00  0.00000000E+00
  0.00000000E+00  0.00000000E+00  0.00000000E+00
  0.00000000E+00  0.00000000E+00  0.00000000E+00
  0.00000000E+00  0.00000000E+00  0.00000000E+00
  0.00000000E+00  0.00000000E+00  0.00000000E+00
  0.00000000E+00  0.00000000E+00  0.00000000E+00
  0.00000000E+00  0.00000000E+00  0.00000000E+00
  0.00000000E+00  0.00000000E+00  0.00000000E+00
  0.00000000E+00  0.00000000E+00  0.00000000E+00
  0.00000000E+00  0.00000000E+00  0.00000000E+00
  0.00000000E+00  0.00000000E+00  0.00000000E+00
  0.00000000E+00  0.00000000E+00  0.00000000E+00
  0.00000000E+00  0.00000000E+00  0.00000000E+00
  0.00000000E+00  0.00000000E+00  0.00000000E+00
  0.00000000E+00  0.00000000E+00  0.00000000E+00
  0.00000000E+00  0.00000000E+00  0.00000000E+00
  0.00000000E+00  0.00000000E+00  0.00000000E+00
  0.00000000E+00  0.00000000E+00  0.00000000E+00
  0.00000000E+00  0.00000000E+00  0.00000000E+00
  0.00000000E+00  0.00000000E+00  0.00000000E+00
  0.00000000E+00  0.00000000E+00  0.00000000E+00
  0.00000000E+00  0.00000000E+00  0.00000000E+00
  0.00000000E+00  0.00000000E+00  0.00000000E+00
  0.00000000E+00  0.00000000E+00  0.00000000E+00
  0.00000000E+00  0.00000000E+00  0.00000000E+00
  0.00000000E+00  0.00000000E+00  0.00000000E+00
  0.00000000E+00  0.00000000E+00  0.00000000E+00
  0.00000000E+00  0.00000000E+00  0.00000000E+00
  0.00000000E+00  0.00000000E+00  0.00000000E+00
  0.00000000E+00  0.00000000E+00  0.00000000E+00
  0.00000000E+00  0.00000000E+00  0.00000000E+00
  0.00000000E+00  0.00000000E+00  0.00000000E+00
  0.00000000E+00  0.00000000E+00  0.00000000E+00
  0.00000000E+00  0.00000000E+00  0.00000000E+00
  0.00000000E+00  0.00000000E+00  0.00000000E+00
  0.00000000E+00  0.00000000E+00  0.00000000E+00
  0.00000000E+00  0.00000000E+00  0.00000000E+00
  0.00000000E+00  0.00000000E+00  0.00000000E+00
  0.00000000E+00  0.00000000E+00  0.00000000E+00
  0.00000000E+00  0.00000000E+00  0.00000000E+00
  0.00000000E+00  0.00000000E+00  0.00000000E+00
  0.00000000E+00  0.00000000E+00  0.00000000E+00
  0.00000000E+00  0.00000000E+00  0.00000000E+00
  0.00000000E+00  0.00000000E+00  0.00000000E+00
  0.00000000E+00  0.00000000E+00  0.00000000E+00
  0.00000000E+00  0.00000000E+00  0.00000000E+00
  0.00000000E+00  0.00000000E+00  0.00000000E+00
  0.00000000E+00  0.00000000E+00  0.00000000E+00
  0.00000000E+00  0.00000000E+00  0.00000000E+00
  0.00000000E+00  0.00000000E+00  0.00000000E+00
  0.00000000E+00  0.00000000E+00  0.00000000E+00
  0.00000000E+00  0.00000000E+00  0.00000000E+00
  0.00000000E+00  0.00000000E+00  0.00000000E+00
  0.00000000E+00  0.00000000E+00  0.00000000E+00
  0.00000000E+00  0.00000000E+00  0.00000000E+00
  0.00000000E+00  0.00000000E+00  0.00000000E+00
  0.00000000E+00  0.00000000E+00  0.00000000E+00
  0.00000000E+00  0.00000000E+00  0.00000000E+00
  0.00000000E+00  0.00000000E+00  0.00000000E+00
  0.00000000E+00  0.00000000E+00  0.00000000E+00
  0.00000000E+00  0.00000000E+00  0.00000000E+00
  0.00000000E+00  0.00000000E+00  0.00000000E+00
  0.00000000E+00  0.00000000E+00  0.00000000E+00
  0.00000000E+00  0.00000000E+00  0.00000000E+00
  0.00000000E+00  0.00000000E+00  0.00000000E+00
  0.00000000E+00  0.00000000E+00  0.00000000E+00
  0.00000000E+00  0.00000000E+00  0.00000000E+00
  0.00000000E+00  0.00000000E+00  0.00000000E+00
  0.00000000E+00  0.00000000E+00  0.00000000E+00
  0.00000000E+00  0.00000000E+00  0.00000000E+00
  0.00000000E+00  0.00000000E+00  0.00000000E+00
  0.00000000E+00  0.00000000E+00  0.00000000E+00
  0.00000000E+00  0.00000000E+00  0.00000000E+00
  0.00000000E+00  0.00000000E+00  0.00000000E+00
  0.00000000E+00  0.00000000E+00  0.00000000E+00
