K Cu48 H98 N O51                        
   1.00000000000000     
    10.2239000000000004    0.0000000000000000    0.0000000000000000
     0.0000000000000000   10.2239000000000004    0.0000000000000000
     0.0000000000000000    0.0000000000000000   37.6114999999999995
   Cu   O    H    K    N 
    48    51    98     1     1
Selective dynamics
Direct
  0.7579300000000018  0.7579300000000018  0.0480500000000035   F   F   F
  0.0079300000000018  0.7579300000000018  0.0480500000000035   F   F   F
  0.2579300000000018  0.7579300000000018  0.0480500000000035   F   F   F
  0.5079300000000018  0.7579300000000018  0.0480500000000035   F   F   F
  0.7579300000000018  0.0079300000000018  0.0480500000000035   F   F   F
  0.0079300000000018  0.0079300000000018  0.0480500000000035   F   F   F
  0.2579300000000018  0.0079300000000018  0.0480500000000035   F   F   F
  0.5079300000000018  0.0079300000000018  0.0480500000000035   F   F   F
  0.7579300000000018  0.2579300000000018  0.0480500000000035   F   F   F
  0.0079300000000018  0.2579300000000018  0.0480500000000035   F   F   F
  0.2579300000000018  0.2579300000000018  0.0480500000000035   F   F   F
  0.5079300000000018  0.2579300000000018  0.0480500000000035   F   F   F
  0.7579300000000018  0.5079300000000018  0.0480500000000035   F   F   F
  0.0079300000000018  0.5079300000000018  0.0480500000000035   F   F   F
  0.2579300000000018  0.5079300000000018  0.0480500000000035   F   F   F
  0.5079300000000018  0.5079300000000018  0.0480500000000035   F   F   F
  0.7645612827421449  0.7624686822496833  0.1406256389131436   T   T   T
  0.8854195953596268  0.8853120091230361  0.0948453589302937   T   T   T
  0.0096994132318996  0.7580641415338091  0.1417436990522537   T   T   T
  0.1339208939279695  0.8842230161019397  0.0951030451106126   T   T   T
  0.2551649851168742  0.7580873870829228  0.1417325143822500   T   T   T
  0.3836749892384390  0.8816603464984010  0.0958448344539623   T   T   T
  0.5066015907153590  0.7640715609533734  0.1441157927516408   T   T   T
  0.6323102697971043  0.8805380018729663  0.0953435322265886   T   T   T
  0.7592874101340380  0.0076220396773077  0.1427988300322545   T   T   T
  0.8839827346319222  0.1331124316114783  0.0954618030453742   T   T   T
  0.0103292942086192  0.0091581912769729  0.1438150846882107   T   T   T
  0.1333589479137201  0.1325473542897425  0.0956510898706881   T   T   T
  0.2591638477826338  0.0085599573037176  0.1430745082432619   T   T   T
  0.3827612998628543  0.1321615899235949  0.0947956846936370   T   T   T
  0.5099824942863163  0.0093164795494980  0.1418867616506923   T   T   T
  0.6347451736723742  0.1318997279695195  0.0951024898164322   T   T   T
  0.7585121830864483  0.2545530104909995  0.1425932730535637   T   T   T
  0.8827954517993161  0.3828976903480493  0.0958623158340594   T   T   T
  0.0098186842345955  0.2581896172283595  0.1426300019386982   T   T   T
  0.1332111727099778  0.3813123869863648  0.0948708762190754   T   T   T
  0.2587976987976471  0.2561771126087646  0.1428512797872781   T   T   T
  0.3854622753313274  0.3840286721979064  0.0957075283155620   T   T   T
  0.5090526582416256  0.2542677045239033  0.1413923166037155   T   T   T
  0.6345733824852172  0.3852872430514901  0.0956840621763966   T   T   T
  0.7664218804535224  0.5056104152755264  0.1438440478888392   T   T   T
  0.8824609320351857  0.6312578123260498  0.0949094109303643   T   T   T
  0.0128785022105051  0.5099972659484947  0.1422633189710028   T   T   T
  0.1341125172930485  0.6326706939135949  0.0949544748043955   T   T   T
  0.2570927395011288  0.5060010854359771  0.1412218060797565   T   T   T
  0.3866777122007846  0.6331086006609153  0.0956419846412093   T   T   T
  0.5049273933569660  0.5017208207203216  0.1446449409393217   T   T   T
  0.6327619155702644  0.6319978447699145  0.0959228783660984   T   T   T
  0.5974493346268128  0.9590209872773700  0.4436405143287308   T   T   T
  0.2781227890273715  0.3005644097375001  0.2925034321819387   T   T   T
  0.0325620854214911  0.1243509990834112  0.5141063259471186   T   T   T
  0.3912415429500071  0.3141241925532144  0.4468593348499718   T   T   T
  0.5658439355968109  0.6885505686260491  0.3910125892823987   T   T   T
  0.1057742979379579  0.4944686445921687  0.3137256958147661   T   T   T
  0.3112048101994316  0.2909666972410273  0.3785392146426343   T   T   T
  0.7322574680498963  0.3402336382210700  0.2326240012088248   T   T   T
  0.1399055656784869  0.2936134362266656  0.2267364191576594   T   T   T
  0.8102975998184732  0.0710046452716226  0.2336390259786567   T   T   T
  0.5660894206688409  0.5587733413872126  0.5360453255344652   T   T   T
  0.8155533288356440  0.8947002515929623  0.3209268729076921   T   T   T
  0.6201901870122923  0.9427743779333928  0.3710977029820109   T   T   T
  0.7993629810532449  0.8038083272150510  0.4632000336187680   T   T   T
  0.9778774653487431  0.0828830672701549  0.2991577080365660   T   T   T
  0.2608749762681901  0.9041485911477043  0.3037491057909940   T   T   T
  0.2279568785432067  0.0425212944018676  0.3691023182573396   T   T   T
  0.7183033103612796  0.3074185777702694  0.3667306254742941   T   T   T
  0.5579376450002399  0.6098648230001118  0.2878611637807499   T   T   T
  0.1141280103718134  0.4084516713478076  0.5359071111290519   T   T   T
  0.5569571237207632  0.2945883781620633  0.5454493433103329   T   T   T
  0.1994974085996353  0.7026348986609391  0.4338422426928832   T   T   T
  0.5117905210078169  0.1630746292510415  0.3422511566479916   T   T   T
  0.3838038372697071  0.5624556365800206  0.4761011854027839   T   T   T
  0.1420814258043755  0.8718165634553178  0.2419196271767342   T   T   T
  0.9234752935690190  0.7205127526719554  0.2313694434692320   T   T   T
  0.4498846655079681  0.4066546692624421  0.2464800733838111   T   T   T
  0.7055424076599325  0.5551324832451667  0.3451377810231979   T   T   T
  0.2885678579925073  0.6473514654638328  0.2185055128172562   T   T   T
  0.4883887849822892  0.0073667348708254  0.2804954089776935   T   T   T
  0.6593263742525659  0.3499586358075640  0.4371214659942772   T   T   T
  0.1019031366988622  0.6479401422308724  0.5033145717531041   T   T   T
  0.3389544518054866  0.9269572887682158  0.4304454267801762   T   T   T
  0.9900540685474630  0.0943875552950025  0.4176277459192149   T   T   T
 -0.0314332469174610  0.2511684771747568  0.3544591774677064   T   T   T
  0.6185283281545300  0.0994140902229014  0.5055200832664122   T   T   T
  0.3173798228244947  0.6525608114968090  0.3154760659049318   T   T   T
  0.4156915508368182  0.1479291219557165  0.2227302613751796   T   T   T
  0.8303959727564110  0.1898674465161908  0.4695102082528493   T   T   T
  0.9330329650236606  0.6777408082851294  0.3507182960035059   T   T   T
  0.9461546860064787  0.8774161660541905  0.5219674330709094   T   T   T
  0.3181835276879991  0.5731273987715956  0.3817585326775984   T   T   T
  0.2098492162727788  0.1250522032732109  0.4599375530041260   T   T   T
  0.9643298312557856  0.4655254658189260  0.2522260029526915   T   T   T
  0.9818741142253191  0.8220064694645793  0.4110780536943889   T   T   T
  0.6579173059353730  0.5871057982652953  0.4695206548334833   T   T   T
  0.5365428820845229  0.7020297158377885  0.1970999369259902   T   T   T
  0.3155082086843168  0.3108090782134864  0.5757053198427319   T   T   T
  0.8351390352630984  0.4052162267658835  0.5516728874990785   T   T   T
  0.8289345633223457  0.6355470308747302  0.5971846896431603   T   T   T
  0.7037369177020338  0.5679138988362454  0.1955004187648898   T   T   T
  0.6690361129881764  0.8978010082170466  0.4512866593598053   T   T   T
  0.5907742477722935  0.0226158768071934  0.4633347970341077   T   T   T
  0.2154206222257349  0.3641520493275212  0.3033592564236864   T   T   T
  0.3246639090274101  0.2595726772357684  0.3122355022277787   T   T   T
  0.9589022047491282  0.1596601763961332  0.4994770977332981   T   T   T
  0.1065814708083116  0.1167396018415840  0.4967321734144514   T   T   T
  0.3256826144628123  0.2485723898314962  0.4555365081630753   T   T   T
  0.3752363075578169  0.3984110120050016  0.4592064890051251   T   T   T
  0.5655125625367363  0.7790322020868374  0.3814599335332619   T   T   T
  0.4764736011664822  0.6521758028964164  0.3889083686409551   T   T   T
  0.1797949998306343  0.5572330364253023  0.3095071874566426   T   T   T
  0.0509844478490652  0.4908169377733876  0.2916954575458717   T   T   T
  0.2639929085452353  0.2051469423661523  0.3772856241519947   T   T   T
  0.3410112588890176  0.3012178787335018  0.4037233131137397   T   T   T
  0.6437078101066124  0.3445624965591063  0.2425819693738787   T   T   T
  0.7287378866667721  0.4082657046516674  0.2138592215946216   T   T   T
  0.1904852377316417  0.2543500215761573  0.2461933165496059   T   T   T
  0.1291763689949901  0.2255183208548451  0.2086588766385531   T   T   T
  0.7788348162255331  0.1603268952856485  0.2286134062987152   T   T   T
  0.8796458052158951  0.0845013527881040  0.2513880942573298   T   T   T
  0.6213816448614500  0.5870033258539034  0.5558079178300114   T   T   T
  0.6198824043695492  0.5701025666470699  0.5141392090409728   T   T   T
  0.8652241069763167  0.8179006718427216  0.3300339964112000   T   T   T
  0.7533259074971854  0.9180321486914356  0.3403072548650715   T   T   T
  0.6261771448655140  0.9663773476972847  0.3967143792877813   T   T   T
  0.5674881178356278  0.0145834812418499  0.3603953072352755   T   T   T
  0.8433830646351181  0.8261948705779927  0.4859344082345008   T   T   T
  0.7555248894938970  0.7160751669630327  0.4659238669710610   T   T   T
  0.9203630811136992  0.0094353147334574  0.3083239365149904   T   T   T
  0.0651937142179980  0.0449122023750219  0.2964043684512536   T   T   T
  0.2077529821516512  0.8914667959351230  0.2811528650955342   T   T   T
  0.3460672484387278  0.9419233933353216  0.2949408384133714   T   T   T
  0.2357073293552987  0.9926833297307002  0.3466769931363025   T   T   T
  0.2737350485466054  0.9922112466650163  0.3878028112145107   T   T   T
  0.7043104720900487  0.3166944456746619  0.3929370590374586   T   T   T
  0.8135339969608890  0.2881221320494554  0.3625852671825136   T   T   T
  0.5390105747207652  0.5322770615252560  0.2730336633135628   T   T   T
  0.6154972461086619  0.5802044126687316  0.3079744389280791   T   T   T
  0.1080877584333146  0.4926403609704584  0.5225617765334093   T   T   T
  0.1099912793792011  0.3359625946384873  0.5190779223000072   T   T   T
  0.5676411551218580  0.3894428923632039  0.5397641145458533   T   T   T
  0.4696783084579528  0.2911999941243857  0.5571486707823169   T   T   T
  0.1170440494142849  0.7465191088004827  0.4250233978399751   T   T   T
  0.2344509065965147  0.6495381780955592  0.4133271650587227   T   T   T
  0.5910274046656560  0.2154288232455082  0.3485981778656290   T   T   T
  0.4403787972271380  0.2031530116659844  0.3567975582088865   T   T   T
  0.3939083889908533  0.5732194518762639  0.5018850047920630   T   T   T
  0.3111209539300909  0.6189578121860567  0.4686063188207164   T   T   T
  0.0558528975361956  0.8276224716005517  0.2395646707579248   T   T   T
  0.2023640979029098  0.8055887104630450  0.2319298739154721   T   T   T
  0.9401929224183309  0.6272164927634111  0.2378849159449478   T   T   T
  0.9026244406848329  0.7171640647073966  0.2059143365782907   T   T   T
  0.3975631977218589  0.4702715860738162  0.2327569979014616   T   T   T
  0.3874108429372695  0.3727361160357928  0.2649783911506229   T   T   T
  0.7068720799529222  0.4608681642698466  0.3528462193020762   T   T   T
  0.6514951235032721  0.6035355613462077  0.3637215545683601   T   T   T
  0.3725872865510683  0.6711743012505719  0.2065923322143478   T   T   T
  0.2306151430466477  0.6177771712280832  0.1991146200794291   T   T   T
  0.4652229833826573  0.0595840462067885  0.2589752961765581   T   T   T
  0.5049252778581470  0.0709649962826136  0.2997981332301785   T   T   T
  0.7207304190914954  0.2920208886263908  0.4507161525653775   T   T   T
  0.5685413444136064  0.3203162496363640  0.4421156818805016   T   T   T
  0.0556876059650693  0.7286214977955512  0.5102118249762890   T   T   T
  0.1230337558947547  0.6577085418407091  0.4779200657630245   T   T   T
  0.4341609406654690  0.9203442432658230  0.4355285316880406   T   T   T
  0.2975981060567464  0.8388916310619449  0.4336472683271752   T   T   T
  0.9930933704758828  0.9997043235553984  0.4113851403630964   T   T   T
 -0.0070428840269574  0.1429466848834017  0.3948309253371337   T   T   T
  0.0232221932723934  0.3277140345633801  0.3495276284190438   T   T   T
 -0.0266839816996712  0.1941366058961703  0.3325498647535250   T   T   T
  0.6223726684395912  0.0288928112621143  0.5228520689762179   T   T   T
  0.5884047088054328  0.1806824812836520  0.5196333174998302   T   T   T
  0.4064149874135227  0.6356677686084200  0.3047651270929699   T   T   T
  0.2982882283625888  0.7483080551673792  0.3115120709261784   T   T   T
  0.4082530246336262  0.1255696015041796  0.1973231197717330   T   T   T
  0.4345547276754889  0.2426373232195653  0.2237960022289998   T   T   T
  0.7619649464231724  0.1361831757005792  0.4816222555418571   T   T   T
  0.8704629479645725  0.1407358034854128  0.4493394353230702   T   T   T
  0.0011646600187951  0.6219813280679266  0.3398693197615275   T   T   T
  0.8499190913804876  0.6238721021481172  0.3494275217747209   T   T   T
  0.9823435635333952  0.9709338004437339  0.5200723174692270   T   T   T
  0.9165336116993791  0.8687262897799437  0.5464996457673766   T   T   T
  0.3146856771314042  0.6078589265027016  0.3564832766845257   T   T   T
  0.3046602804171889  0.4779848422253511  0.3795131045232371   T   T   T
  0.2625670116113049  0.0459705383397966  0.4527844068010095   T   T   T
  0.1360142453105209  0.1240920511233610  0.4424273564192124   T   T   T
  0.8779179079948159  0.4211776248987567  0.2514549209462348   T   T   T
  0.0251572096690830  0.4028608266195418  0.2400696268018157   T   T   T
  0.9110547094020036  0.8067801155415802  0.4290310381218954   T   T   T
  0.9590792103324268  0.7703263585990157  0.3893898743581843   T   T   T
  0.5677646909342450  0.6095839357447643  0.4626310074688813   T   T   T
  0.6719995140891992  0.5007504305650529  0.4574499258907050   T   T   T
  0.2411692211647709  0.3546835690727200  0.5634855635328967   T   T   T
  0.2845405359646245  0.2856460763408792  0.5990695724045653   T   T   T
  0.9283450277253689  0.3843468851618403  0.5480535789391676   T   T   T
  0.7878471570901463  0.3224453191324018  0.5529364471217745   T   T   T
  0.8873559772277567  0.6084794010835541  0.5782439187141408   T   T   T
  0.7946522437399292  0.5510248126207805  0.6046120880834889   T   T   T
  0.6842610417030220  0.8373312715991756  0.2542362472060684   T   T   T
  0.5807070287686356  0.5851851313173770  0.1871315297131245   T   T   T
 
  0.00000000E+00  0.00000000E+00  0.00000000E+00
  0.00000000E+00  0.00000000E+00  0.00000000E+00
  0.00000000E+00  0.00000000E+00  0.00000000E+00
  0.00000000E+00  0.00000000E+00  0.00000000E+00
  0.00000000E+00  0.00000000E+00  0.00000000E+00
  0.00000000E+00  0.00000000E+00  0.00000000E+00
  0.00000000E+00  0.00000000E+00  0.00000000E+00
  0.00000000E+00  0.00000000E+00  0.00000000E+00
  0.00000000E+00  0.00000000E+00  0.00000000E+00
  0.00000000E+00  0.00000000E+00  0.00000000E+00
  0.00000000E+00  0.00000000E+00  0.00000000E+00
  0.00000000E+00  0.00000000E+00  0.00000000E+00
  0.00000000E+00  0.00000000E+00  0.00000000E+00
  0.00000000E+00  0.00000000E+00  0.00000000E+00
  0.00000000E+00  0.00000000E+00  0.00000000E+00
  0.00000000E+00  0.00000000E+00  0.00000000E+00
  0.00000000E+00  0.00000000E+00  0.00000000E+00
  0.00000000E+00  0.00000000E+00  0.00000000E+00
  0.00000000E+00  0.00000000E+00  0.00000000E+00
  0.00000000E+00  0.00000000E+00  0.00000000E+00
  0.00000000E+00  0.00000000E+00  0.00000000E+00
  0.00000000E+00  0.00000000E+00  0.00000000E+00
  0.00000000E+00  0.00000000E+00  0.00000000E+00
  0.00000000E+00  0.00000000E+00  0.00000000E+00
  0.00000000E+00  0.00000000E+00  0.00000000E+00
  0.00000000E+00  0.00000000E+00  0.00000000E+00
  0.00000000E+00  0.00000000E+00  0.00000000E+00
  0.00000000E+00  0.00000000E+00  0.00000000E+00
  0.00000000E+00  0.00000000E+00  0.00000000E+00
  0.00000000E+00  0.00000000E+00  0.00000000E+00
  0.00000000E+00  0.00000000E+00  0.00000000E+00
  0.00000000E+00  0.00000000E+00  0.00000000E+00
  0.00000000E+00  0.00000000E+00  0.00000000E+00
  0.00000000E+00  0.00000000E+00  0.00000000E+00
  0.00000000E+00  0.00000000E+00  0.00000000E+00
  0.00000000E+00  0.00000000E+00  0.00000000E+00
  0.00000000E+00  0.00000000E+00  0.00000000E+00
  0.00000000E+00  0.00000000E+00  0.00000000E+00
  0.00000000E+00  0.00000000E+00  0.00000000E+00
  0.00000000E+00  0.00000000E+00  0.00000000E+00
  0.00000000E+00  0.00000000E+00  0.00000000E+00
  0.00000000E+00  0.00000000E+00  0.00000000E+00
  0.00000000E+00  0.00000000E+00  0.00000000E+00
  0.00000000E+00  0.00000000E+00  0.00000000E+00
  0.00000000E+00  0.00000000E+00  0.00000000E+00
  0.00000000E+00  0.00000000E+00  0.00000000E+00
  0.00000000E+00  0.00000000E+00  0.00000000E+00
  0.00000000E+00  0.00000000E+00  0.00000000E+00
  0.00000000E+00  0.00000000E+00  0.00000000E+00
  0.00000000E+00  0.00000000E+00  0.00000000E+00
  0.00000000E+00  0.00000000E+00  0.00000000E+00
  0.00000000E+00  0.00000000E+00  0.00000000E+00
  0.00000000E+00  0.00000000E+00  0.00000000E+00
  0.00000000E+00  0.00000000E+00  0.00000000E+00
  0.00000000E+00  0.00000000E+00  0.00000000E+00
  0.00000000E+00  0.00000000E+00  0.00000000E+00
  0.00000000E+00  0.00000000E+00  0.00000000E+00
  0.00000000E+00  0.00000000E+00  0.00000000E+00
  0.00000000E+00  0.00000000E+00  0.00000000E+00
  0.00000000E+00  0.00000000E+00  0.00000000E+00
  0.00000000E+00  0.00000000E+00  0.00000000E+00
  0.00000000E+00  0.00000000E+00  0.00000000E+00
  0.00000000E+00  0.00000000E+00  0.00000000E+00
  0.00000000E+00  0.00000000E+00  0.00000000E+00
  0.00000000E+00  0.00000000E+00  0.00000000E+00
  0.00000000E+00  0.00000000E+00  0.00000000E+00
  0.00000000E+00  0.00000000E+00  0.00000000E+00
  0.00000000E+00  0.00000000E+00  0.00000000E+00
  0.00000000E+00  0.00000000E+00  0.00000000E+00
  0.00000000E+00  0.00000000E+00  0.00000000E+00
  0.00000000E+00  0.00000000E+00  0.00000000E+00
  0.00000000E+00  0.00000000E+00  0.00000000E+00
  0.00000000E+00  0.00000000E+00  0.00000000E+00
  0.00000000E+00  0.00000000E+00  0.00000000E+00
  0.00000000E+00  0.00000000E+00  0.00000000E+00
  0.00000000E+00  0.00000000E+00  0.00000000E+00
  0.00000000E+00  0.00000000E+00  0.00000000E+00
  0.00000000E+00  0.00000000E+00  0.00000000E+00
  0.00000000E+00  0.00000000E+00  0.00000000E+00
  0.00000000E+00  0.00000000E+00  0.00000000E+00
  0.00000000E+00  0.00000000E+00  0.00000000E+00
  0.00000000E+00  0.00000000E+00  0.00000000E+00
  0.00000000E+00  0.00000000E+00  0.00000000E+00
  0.00000000E+00  0.00000000E+00  0.00000000E+00
  0.00000000E+00  0.00000000E+00  0.00000000E+00
  0.00000000E+00  0.00000000E+00  0.00000000E+00
  0.00000000E+00  0.00000000E+00  0.00000000E+00
  0.00000000E+00  0.00000000E+00  0.00000000E+00
  0.00000000E+00  0.00000000E+00  0.00000000E+00
  0.00000000E+00  0.00000000E+00  0.00000000E+00
  0.00000000E+00  0.00000000E+00  0.00000000E+00
  0.00000000E+00  0.00000000E+00  0.00000000E+00
  0.00000000E+00  0.00000000E+00  0.00000000E+00
  0.00000000E+00  0.00000000E+00  0.00000000E+00
  0.00000000E+00  0.00000000E+00  0.00000000E+00
  0.00000000E+00  0.00000000E+00  0.00000000E+00
  0.00000000E+00  0.00000000E+00  0.00000000E+00
  0.00000000E+00  0.00000000E+00  0.00000000E+00
  0.00000000E+00  0.00000000E+00  0.00000000E+00
  0.00000000E+00  0.00000000E+00  0.00000000E+00
  0.00000000E+00  0.00000000E+00  0.00000000E+00
  0.00000000E+00  0.00000000E+00  0.00000000E+00
  0.00000000E+00  0.00000000E+00  0.00000000E+00
  0.00000000E+00  0.00000000E+00  0.00000000E+00
  0.00000000E+00  0.00000000E+00  0.00000000E+00
  0.00000000E+00  0.00000000E+00  0.00000000E+00
  0.00000000E+00  0.00000000E+00  0.00000000E+00
  0.00000000E+00  0.00000000E+00  0.00000000E+00
  0.00000000E+00  0.00000000E+00  0.00000000E+00
  0.00000000E+00  0.00000000E+00  0.00000000E+00
  0.00000000E+00  0.00000000E+00  0.00000000E+00
  0.00000000E+00  0.00000000E+00  0.00000000E+00
  0.00000000E+00  0.00000000E+00  0.00000000E+00
  0.00000000E+00  0.00000000E+00  0.00000000E+00
  0.00000000E+00  0.00000000E+00  0.00000000E+00
  0.00000000E+00  0.00000000E+00  0.00000000E+00
  0.00000000E+00  0.00000000E+00  0.00000000E+00
  0.00000000E+00  0.00000000E+00  0.00000000E+00
  0.00000000E+00  0.00000000E+00  0.00000000E+00
  0.00000000E+00  0.00000000E+00  0.00000000E+00
  0.00000000E+00  0.00000000E+00  0.00000000E+00
  0.00000000E+00  0.00000000E+00  0.00000000E+00
  0.00000000E+00  0.00000000E+00  0.00000000E+00
  0.00000000E+00  0.00000000E+00  0.00000000E+00
  0.00000000E+00  0.00000000E+00  0.00000000E+00
  0.00000000E+00  0.00000000E+00  0.00000000E+00
  0.00000000E+00  0.00000000E+00  0.00000000E+00
  0.00000000E+00  0.00000000E+00  0.00000000E+00
  0.00000000E+00  0.00000000E+00  0.00000000E+00
  0.00000000E+00  0.00000000E+00  0.00000000E+00
  0.00000000E+00  0.00000000E+00  0.00000000E+00
  0.00000000E+00  0.00000000E+00  0.00000000E+00
  0.00000000E+00  0.00000000E+00  0.00000000E+00
  0.00000000E+00  0.00000000E+00  0.00000000E+00
  0.00000000E+00  0.00000000E+00  0.00000000E+00
  0.00000000E+00  0.00000000E+00  0.00000000E+00
  0.00000000E+00  0.00000000E+00  0.00000000E+00
  0.00000000E+00  0.00000000E+00  0.00000000E+00
  0.00000000E+00  0.00000000E+00  0.00000000E+00
  0.00000000E+00  0.00000000E+00  0.00000000E+00
  0.00000000E+00  0.00000000E+00  0.00000000E+00
  0.00000000E+00  0.00000000E+00  0.00000000E+00
  0.00000000E+00  0.00000000E+00  0.00000000E+00
  0.00000000E+00  0.00000000E+00  0.00000000E+00
  0.00000000E+00  0.00000000E+00  0.00000000E+00
  0.00000000E+00  0.00000000E+00  0.00000000E+00
  0.00000000E+00  0.00000000E+00  0.00000000E+00
  0.00000000E+00  0.00000000E+00  0.00000000E+00
  0.00000000E+00  0.00000000E+00  0.00000000E+00
  0.00000000E+00  0.00000000E+00  0.00000000E+00
  0.00000000E+00  0.00000000E+00  0.00000000E+00
  0.00000000E+00  0.00000000E+00  0.00000000E+00
  0.00000000E+00  0.00000000E+00  0.00000000E+00
  0.00000000E+00  0.00000000E+00  0.00000000E+00
  0.00000000E+00  0.00000000E+00  0.00000000E+00
  0.00000000E+00  0.00000000E+00  0.00000000E+00
  0.00000000E+00  0.00000000E+00  0.00000000E+00
  0.00000000E+00  0.00000000E+00  0.00000000E+00
  0.00000000E+00  0.00000000E+00  0.00000000E+00
  0.00000000E+00  0.00000000E+00  0.00000000E+00
  0.00000000E+00  0.00000000E+00  0.00000000E+00
  0.00000000E+00  0.00000000E+00  0.00000000E+00
  0.00000000E+00  0.00000000E+00  0.00000000E+00
  0.00000000E+00  0.00000000E+00  0.00000000E+00
  0.00000000E+00  0.00000000E+00  0.00000000E+00
  0.00000000E+00  0.00000000E+00  0.00000000E+00
  0.00000000E+00  0.00000000E+00  0.00000000E+00
  0.00000000E+00  0.00000000E+00  0.00000000E+00
  0.00000000E+00  0.00000000E+00  0.00000000E+00
  0.00000000E+00  0.00000000E+00  0.00000000E+00
  0.00000000E+00  0.00000000E+00  0.00000000E+00
  0.00000000E+00  0.00000000E+00  0.00000000E+00
  0.00000000E+00  0.00000000E+00  0.00000000E+00
  0.00000000E+00  0.00000000E+00  0.00000000E+00
  0.00000000E+00  0.00000000E+00  0.00000000E+00
  0.00000000E+00  0.00000000E+00  0.00000000E+00
  0.00000000E+00  0.00000000E+00  0.00000000E+00
  0.00000000E+00  0.00000000E+00  0.00000000E+00
  0.00000000E+00  0.00000000E+00  0.00000000E+00
  0.00000000E+00  0.00000000E+00  0.00000000E+00
  0.00000000E+00  0.00000000E+00  0.00000000E+00
  0.00000000E+00  0.00000000E+00  0.00000000E+00
  0.00000000E+00  0.00000000E+00  0.00000000E+00
  0.00000000E+00  0.00000000E+00  0.00000000E+00
  0.00000000E+00  0.00000000E+00  0.00000000E+00
  0.00000000E+00  0.00000000E+00  0.00000000E+00
  0.00000000E+00  0.00000000E+00  0.00000000E+00
  0.00000000E+00  0.00000000E+00  0.00000000E+00
  0.00000000E+00  0.00000000E+00  0.00000000E+00
  0.00000000E+00  0.00000000E+00  0.00000000E+00
  0.00000000E+00  0.00000000E+00  0.00000000E+00
  0.00000000E+00  0.00000000E+00  0.00000000E+00
  0.00000000E+00  0.00000000E+00  0.00000000E+00
  0.00000000E+00  0.00000000E+00  0.00000000E+00
  0.00000000E+00  0.00000000E+00  0.00000000E+00
  0.00000000E+00  0.00000000E+00  0.00000000E+00
  0.00000000E+00  0.00000000E+00  0.00000000E+00
  0.00000000E+00  0.00000000E+00  0.00000000E+00
  0.00000000E+00  0.00000000E+00  0.00000000E+00
