K Cu48 H98 N O49
1.0
10.22390000 0.00000000 0.00000000
0.00000000 10.22390000 0.00000000
0.00000000 0.00000000 37.61150000
Cu O H K N
48 49 98 1 1
Selective dynamics
Direct
0.75793000 0.75793000 0.04805000 F F F
0.00793000 0.75793000 0.04805000 F F F
0.25793000 0.75793000 0.04805000 F F F
0.50793000 0.75793000 0.04805000 F F F
0.75793000 0.00793000 0.04805000 F F F
0.00793000 0.00793000 0.04805000 F F F
0.25793000 0.00793000 0.04805000 F F F
0.50793000 0.00793000 0.04805000 F F F
0.75793000 0.25793000 0.04805000 F F F
0.00793000 0.25793000 0.04805000 F F F
0.25793000 0.25793000 0.04805000 F F F
0.50793000 0.25793000 0.04805000 F F F
0.75793000 0.50793000 0.04805000 F F F
0.00793000 0.50793000 0.04805000 F F F
0.25793000 0.50793000 0.04805000 F F F
0.50793000 0.50793000 0.04805000 F F F
0.75944943 0.75957925 0.14437428 T T T
0.88019454 0.88090594 0.09509577 T T T
0.00896613 0.75792625 0.14144082 T T T
0.13326469 0.88357163 0.09538824 T T T
0.25616882 0.75769084 0.14173634 T T T
0.38609767 0.88025639 0.09488645 T T T
0.50744263 0.75928105 0.14342630 T T T
0.63363464 0.88314130 0.09600583 T T T
0.75881597 0.01040166 0.14207410 T T T
0.88439469 0.13272577 0.09562590 T T T
0.00780806 0.00601171 0.14233661 T T T
0.13316773 0.13254104 0.09420805 T T T
0.25966672 0.00637921 0.14216729 T T T
0.38270354 0.13322096 0.09546678 T T T
0.50743540 0.00964573 0.14166681 T T T
0.63339734 0.13331436 0.09420763 T T T
0.75913275 0.25795677 0.14168375 T T T
0.88091316 0.38615301 0.09517688 T T T
0.00743190 0.25840959 0.14207417 T T T
0.13277198 0.38156602 0.09551430 T T T
0.26073503 0.25848949 0.14190980 T T T
0.38590831 0.38552978 0.09484678 T T T
0.50896983 0.25715230 0.14181223 T T T
0.63330053 0.38457152 0.09603522 T T T
0.75854209 0.50814812 0.14454467 T T T
0.88189999 0.63265396 0.09610657 T T T
0.00891518 0.50742592 0.14215008 T T T
0.13285633 0.63275731 0.09420746 T T T
0.25576069 0.50578962 0.14180975 T T T
0.38328305 0.63267325 0.09607306 T T T
0.50740889 0.50791297 0.14398701 T T T
0.63336082 0.63343642 0.09233599 T T T
0.60066712 0.96119260 0.44191983 T T T
0.26519453 0.29854430 0.29061443 T T T
0.04046938 0.07857559 0.51348694 T T T
0.40897034 0.30581164 0.44381994 T T T
0.54189667 0.68790665 0.39209012 T T T
0.09394165 0.49271653 0.31145036 T T T
0.33981711 0.28202512 0.37378064 T T T
0.69726410 0.38524800 0.22479157 T T T
0.11023485 0.29416000 0.22149342 T T T
0.77787632 0.09161950 0.23824996 T T T
0.57354353 0.54672275 0.52630057 T T T
0.81310054 0.89052785 0.31940183 T T T
0.61637369 0.93860473 0.36848156 T T T
0.80120545 0.80002950 0.45840033 T T T
0.95631721 0.08798719 0.29402237 T T T
0.26154618 0.90818521 0.30290063 T T T
0.23262070 0.04511190 0.36647686 T T T
0.73580851 0.32076122 0.36272685 T T T
0.54414223 0.61656086 0.28994579 T T T
0.08632909 0.37638396 0.53521559 T T T
0.56645386 0.29525496 0.54657893 T T T
0.20005963 0.69354333 0.43440242 T T T
0.54188584 0.16780371 0.33707590 T T T
0.39704183 0.55454137 0.47045950 T T T
0.09281696 0.93157798 0.24634082 T T T
0.93209610 0.72912645 0.22782450 T T T
0.44671924 0.39704000 0.24775269 T T T
0.70019807 0.57229108 0.34655625 T T T
0.36061417 0.61862566 0.22078322 T T T
0.48518658 0.01084660 0.27915508 T T T
0.67580014 0.33505162 0.43278827 T T T
0.10442878 0.60757801 0.50130048 T T T
0.34300446 0.91992445 0.42549894 T T T
0.99239553 0.09681421 0.41492047 T T T
0.98562099 0.24827891 0.35050236 T T T
0.62990883 0.09961209 0.50575525 T T T
0.29643659 0.65637823 0.31500380 T T T
0.38807196 0.14747238 0.22190563 T T T
0.84529283 0.18476678 0.46992117 T T T
0.93536468 0.68048947 0.35010034 T T T
0.94152526 0.82448013 0.51903574 T T T
0.30548121 0.55837069 0.38033354 T T T
0.21673294 0.11815744 0.45780784 T T T
0.95319510 0.47451697 0.24934560 T T T
0.99255757 0.82500219 0.41022383 T T T
0.66968430 0.57666170 0.46024691 T T T
0.31313322 0.31411894 0.57300796 T T T
0.85582355 0.43566263 0.57022143 T T T
0.77260619 0.67789748 0.56469075 T T T
0.67244380 0.89997497 0.44931357 T T T
0.59345197 0.02416498 0.46172000 T T T
0.20159868 0.36541134 0.29928191 T T T
0.30014961 0.25809103 0.31204222 T T T
0.96841755 0.11951004 0.49985481 T T T
0.11448939 0.07805454 0.49615386 T T T
0.34207820 0.24378996 0.45318748 T T T
0.39170247 0.39355805 0.45449824 T T T
0.54037164 0.77677201 0.38159118 T T T
0.45525011 0.64659872 0.38840477 T T T
0.16660078 0.55836138 0.30839217 T T T
0.03819344 0.49334897 0.28965396 T T T
0.28750159 0.19816473 0.37210376 T T T
0.36791831 0.28841616 0.39923381 T T T
0.60527988 0.37608281 0.23356727 T T T
0.69441245 0.36555101 0.19897892 T T T
0.18310614 0.25757274 0.23510559 T T T
0.14436077 0.31281627 0.19736030 T T T
0.74711529 0.17970079 0.23241801 T T T
0.84322012 0.10554943 0.25736380 T T T
0.62608295 0.59940288 0.54317864 T T T
0.62284531 0.55342212 0.50338934 T T T
0.86894201 0.81811941 0.32851436 T T T
0.74933885 0.90957570 0.33878013 T T T
0.62663803 0.96296605 0.39380239 T T T
0.57798346 0.01866969 0.35730766 T T T
0.84837368 0.81008092 0.48161062 T T T
0.76091881 0.71032605 0.45840342 T T T
0.90634416 0.01380304 0.30538494 T T T
0.01801311 0.04384922 0.27758886 T T T
0.20191175 0.91425817 0.28219581 T T T
0.34775390 0.94436436 0.29409526 T T T
0.23690138 0.99575821 0.34361986 T T T
0.27648889 0.99076590 0.38465689 T T T
0.71785206 0.31926504 0.38884114 T T T
0.82925779 0.29382595 0.35896565 T T T
0.52954251 0.53352804 0.27736765 T T T
0.60417140 0.59601168 0.31036786 T T T
0.09354765 0.45393869 0.51890213 T T T
0.07781549 0.29613579 0.52119106 T T T
0.56870980 0.38732749 0.53735107 T T T
0.47838815 0.28915371 0.55754083 T T T
0.11987932 0.74256949 0.42604318 T T T
0.22723632 0.63645788 0.41400953 T T T
0.62093049 0.22175021 0.34291805 T T T
0.46986150 0.21091440 0.35076471 T T T
0.42016519 0.56311718 0.49576273 T T T
0.32236171 0.61269761 0.46579853 T T T
0.03983202 0.85379720 0.23882455 T T T
0.12427030 0.97253182 0.22451187 T T T
0.94839399 0.63573512 0.23453233 T T T
0.91884434 0.72660626 0.20185224 T T T
0.40059345 0.47261833 0.23569626 T T T
0.38437617 0.36353102 0.26646363 T T T
0.71127767 0.47672104 0.35224649 T T T
0.64233347 0.61114328 0.36567816 T T T
0.45308374 0.64216851 0.21499315 T T T
0.31574578 0.62169872 0.19762815 T T T
0.45740319 0.06117878 0.25778228 T T T
0.51232869 0.07596834 0.29724583 T T T
0.73808902 0.28205803 0.44752841 T T T
0.58514375 0.30715871 0.43871026 T T T
0.05243184 0.68272476 0.50982608 T T T
0.12601324 0.62805169 0.47633357 T T T
0.43806462 0.91765607 0.43125893 T T T
0.30421679 0.83247804 0.43049143 T T T
0.99674932 0.00204294 0.40883220 T T T
0.99968111 0.14546637 0.39224861 T T T
0.03608570 0.32620832 0.34399009 T T T
0.98733585 0.19002781 0.32888477 T T T
0.63547784 0.02696650 0.52232200 T T T
0.60027083 0.17827440 0.52060361 T T T
0.38596214 0.64050910 0.30476225 T T T
0.27972416 0.75282373 0.31092738 T T T
0.39974129 0.12733809 0.19632136 T T T
0.41613735 0.23943611 0.22488285 T T T
0.77321244 0.13403491 0.48114883 T T T
0.88256345 0.13795072 0.44888462 T T T
0.99624875 0.61745220 0.33905131 T T T
0.84718060 0.63565655 0.34985050 T T T
0.97703394 0.91506594 0.52179963 T T T
0.88918624 0.79782047 0.53982023 T T T
0.29624293 0.59790838 0.35591918 T T T
0.30582546 0.46239496 0.37693803 T T T
0.26607610 0.04017010 0.44856785 T T T
0.14194276 0.12375293 0.44089640 T T T
0.86431266 0.43880321 0.24612535 T T T
0.01284444 0.40928356 0.23755916 T T T
0.91757197 0.81104578 0.42715167 T T T
0.97140883 0.77370638 0.38839087 T T T
0.58070675 0.60068971 0.45252697 T T T
0.68578673 0.48985606 0.44846310 T T T
0.23763445 0.34342839 0.55836088 T T T
0.27450513 0.25973711 0.59149364 T T T
0.93566383 0.40744048 0.55694468 T T T
0.78461249 0.37676383 0.56386168 T T T
0.81269828 0.58668119 0.56666012 T T T
0.74903217 0.70076479 0.58895221 T T T
0.68506385 0.84679423 0.25400546 T T T
0.63284680 0.63686356 0.16745433 T T T
