K Cu48 H98 N O50                        
   1.00000000000000     
    10.2239000000000004    0.0000000000000000    0.0000000000000000
     0.0000000000000000   10.2239000000000004    0.0000000000000000
     0.0000000000000000    0.0000000000000000   37.6114999999999995
   Cu   O    H    K    N 
    48    50    98     1     1
Selective dynamics
Direct
  0.7579300000000018  0.7579300000000018  0.0480500000000035   F   F   F
  0.0079300000000018  0.7579300000000018  0.0480500000000035   F   F   F
  0.2579300000000018  0.7579300000000018  0.0480500000000035   F   F   F
  0.5079300000000018  0.7579300000000018  0.0480500000000035   F   F   F
  0.7579300000000018  0.0079300000000018  0.0480500000000035   F   F   F
  0.0079300000000018  0.0079300000000018  0.0480500000000035   F   F   F
  0.2579300000000018  0.0079300000000018  0.0480500000000035   F   F   F
  0.5079300000000018  0.0079300000000018  0.0480500000000035   F   F   F
  0.7579300000000018  0.2579300000000018  0.0480500000000035   F   F   F
  0.0079300000000018  0.2579300000000018  0.0480500000000035   F   F   F
  0.2579300000000018  0.2579300000000018  0.0480500000000035   F   F   F
  0.5079300000000018  0.2579300000000018  0.0480500000000035   F   F   F
  0.7579300000000018  0.5079300000000018  0.0480500000000035   F   F   F
  0.0079300000000018  0.5079300000000018  0.0480500000000035   F   F   F
  0.2579300000000018  0.5079300000000018  0.0480500000000035   F   F   F
  0.5079300000000018  0.5079300000000018  0.0480500000000035   F   F   F
  0.7607887112834238  0.7607035967677831  0.1429125534608235   T   T   T
  0.8828258028422243  0.8814113724407193  0.0946136983054993   T   T   T
  0.0103587808656683  0.7555664559640085  0.1410040385933749   T   T   T
  0.1338473717961201  0.8834507239929409  0.0954327867578263   T   T   T
  0.2586101631395381  0.7545234043391510  0.1412533847285095   T   T   T
  0.3845869288442209  0.8817131256071932  0.0947591053220902   T   T   T
  0.5107398127566237  0.7589545464856737  0.1416405859829531   T   T   T
  0.6347773913739609  0.8839085927753909  0.0955559707110379   T   T   T
  0.7587058313764151  0.0103731041167973  0.1419890533731361   T   T   T
  0.8841654033813066  0.1334445681309586  0.0957332964973397   T   T   T
  0.0087051981179193  0.0059757997267736  0.1426296624862932   T   T   T
  0.1338980327828783  0.1312407837332989  0.0946605800007706   T   T   T
  0.2599437471879292  0.0062548307346482  0.1425607051812641   T   T   T
  0.3826620407797341  0.1328193049493816  0.0956696451413006   T   T   T
  0.5099990222468299  0.0090411662551387  0.1416585590950858   T   T   T
  0.6336972542868492  0.1338686130366833  0.0945892643712897   T   T   T
  0.7596295616809602  0.2583433658806821  0.1421039182615567   T   T   T
  0.8810310532840839  0.3847847815221557  0.0955855408253338   T   T   T
  0.0083154560754490  0.2570602818295811  0.1421855001541819   T   T   T
  0.1331598365670125  0.3810670066804104  0.0957135470495777   T   T   T
  0.2602955074249049  0.2558621868408171  0.1426440798250851   T   T   T
  0.3863113332356487  0.3833703267417655  0.0946382449910129   T   T   T
  0.5108399059116516  0.2583766161981778  0.1418275127401527   T   T   T
  0.6350801407670926  0.3848934031473248  0.0961474376927389   T   T   T
  0.7613617132089621  0.5070929099247042  0.1459755791935274   T   T   T
  0.8820366819942869  0.6312341294156807  0.0956565321692266   T   T   T
  0.0094221903607423  0.5073882615756075  0.1420595107920088   T   T   T
  0.1328172613022804  0.6324664030950995  0.0943577692638326   T   T   T
  0.2571261652944010  0.5048523612697685  0.1407566307979433   T   T   T
  0.3847033119939964  0.6321189186055672  0.0952972006646388   T   T   T
  0.5062180498389862  0.5097299274880664  0.1430819559886371   T   T   T
  0.6330710170367707  0.6327918411122193  0.0925838474313327   T   T   T
  0.5987790984681116  0.9582364045556263  0.4430966821874264   T   T   T
  0.2902837248708977  0.3011680627413010  0.2903778557059458   T   T   T
  0.0362397243055090  0.1141243674073631  0.5133289893455405   T   T   T
  0.3968754441890024  0.3151608156979422  0.4466817116084409   T   T   T
  0.5552553671346686  0.6945799710644809  0.3919701465481690   T   T   T
  0.1000966406278985  0.4834052129084952  0.3138189701366028   T   T   T
  0.3212000245622003  0.2841789742091462  0.3769921811678330   T   T   T
  0.7313607935487423  0.3571180468913420  0.2268045600546787   T   T   T
  0.1440582607304633  0.2969382684243160  0.2268296700814968   T   T   T
  0.8016902276053649  0.0824732696906100  0.2390563527007124   T   T   T
  0.5841849590112791  0.5582808385311502  0.5366479081167376   T   T   T
  0.8202531421182886  0.8927075599073684  0.3218102646712951   T   T   T
  0.6220700214622600  0.9474970448806386  0.3703608503763525   T   T   T
  0.8002355989024922  0.8011028755134824  0.4625169380492873   T   T   T
  0.9732331161535747  0.0850586612942443  0.2997955266440869   T   T   T
  0.2517998139046588  0.9055824380443924  0.3023866290498123   T   T   T
  0.2251506508993860  0.0418437098049242  0.3681591864847444   T   T   T
  0.7130555677770498  0.3166869408305016  0.3636381222475882   T   T   T
  0.5505092651673953  0.6203250596304456  0.2875470999639255   T   T   T
  0.1083765937359125  0.4005268718654501  0.5380101523850895   T   T   T
  0.5490071242725238  0.2949234442292240  0.5429558288784506   T   T   T
  0.2006350479432910  0.7001777929944681  0.4337056127459669   T   T   T
  0.5155385466931989  0.1696906288725874  0.3399082949466138   T   T   T
  0.3899553676938394  0.5642262143239526  0.4758252993776246   T   T   T
  0.1520264665907162  0.8613219319629439  0.2381791293593291   T   T   T
  0.9263015066334244  0.7221149294183559  0.2273968840569175   T   T   T
  0.4664457150949468  0.4085987953220251  0.2445129212123900   T   T   T
  0.6970067436461240  0.5677487752406247  0.3449371873367804   T   T   T
  0.3522280244725682  0.6280774237616700  0.2179305170833708   T   T   T
  0.4808802263283869  0.0073374548095908  0.2794440870177899   T   T   T
  0.6641981188191693  0.3495974541993749  0.4342479871942414   T   T   T
  0.0984488726741972  0.6356534893741690  0.5025097113096098   T   T   T
  0.3405469123686323  0.9263927370563297  0.4276650921711059   T   T   T
  0.9897886056916438  0.0978028515146874  0.4163055271340468   T   T   T
 -0.0346665022285164  0.2539204611184114  0.3534444688579795   T   T   T
  0.6225905355453882  0.1017874490586150  0.5044659511907561   T   T   T
  0.3087976094335506  0.6505070863055763  0.3142029132716975   T   T   T
  0.4170294896354836  0.1514744468916711  0.2211184442219579   T   T   T
  0.8356384579769949  0.1924771384122191  0.4689802578863441   T   T   T
  0.9293326257724206  0.6738279727851655  0.3516420180673099   T   T   T
  0.9521069416879291  0.8671757491651991  0.5213951681956465   T   T   T
  0.3132564029481144  0.5693441905834093  0.3802575585694358   T   T   T
  0.2126498717809976  0.1236383392320416  0.4590236375320330   T   T   T
  0.9654242762551135  0.4712423191999627  0.2502351061578688   T   T   T
  0.9844786794963974  0.8228246003566352  0.4111606817257679   T   T   T
  0.6608816815123379  0.5851978107727609  0.4675361115934749   T   T   T
  0.6011458178223235  0.6782877130002289  0.2010866335327265   T   T   T
  0.3160692232217540  0.3014294204746915  0.5763001673899067   T   T   T
  0.8392265814154862  0.3865341702472596  0.5624896063816244   T   T   T
  0.7891249450729731  0.6465559609149478  0.5855280175295887   T   T   T
  0.6701328205502097  0.8969776719906773  0.4504915596210016   T   T   T
  0.5930892294584544  0.0221244368558476  0.4628947702137482   T   T   T
  0.2256054115393507  0.3564128165919939  0.3031124498144863   T   T   T
  0.3396173374705598  0.2523063847833046  0.3082313040938451   T   T   T
  0.9632764277110490  0.1511241279464847  0.4989938292342554   T   T   T
  0.1108937996600111  0.1103065532757390  0.4962516107859065   T   T   T
  0.3329473099085707  0.2499408046326266  0.4558769708824892   T   T   T
  0.3810715703976542  0.3996369671223417  0.4589276001127490   T   T   T
  0.5557687842820818  0.7842598442611038  0.3819541973113004   T   T   T
  0.4668011545454850  0.6568422777227783  0.3888534728894086   T   T   T
  0.1725554395483952  0.5478451515953461  0.3102969932687437   T   T   T
  0.0468385711385211  0.4831709324243997  0.2914823590855307   T   T   T
  0.2706048406624029  0.2001533644272913  0.3744322748381805   T   T   T
  0.3453364091380760  0.2920461069927841  0.4026259924471383   T   T   T
  0.6398063225537447  0.3788100076215783  0.2331639853677022   T   T   T
  0.7377826023409261  0.3779038759616369  0.2011885193650074   T   T   T
  0.2020858041755932  0.2668978117024782  0.2460719399431064   T   T   T
  0.1274246445766799  0.2206016160946741  0.2119227343702935   T   T   T
  0.7703905904623145  0.1711435844005956  0.2335185546146341   T   T   T
  0.8716061916482722  0.0953763490129291  0.2567143830401640   T   T   T
  0.6483626957732259  0.5914981343085087  0.5541367765139729   T   T   T
  0.6279160279672488  0.5653158679205899  0.5131624792453254   T   T   T
  0.8685582670024441  0.8147730188667113  0.3307508134020128   T   T   T
  0.7562481883856925  0.9156580215373109  0.3408106843809869   T   T   T
  0.6287207009074502  0.9697338380231568  0.3960439750247534   T   T   T
  0.5729299759705021  0.0221631498845876  0.3596599465451742   T   T   T
  0.8448910291456656  0.8205965422407093  0.4853539542570329   T   T   T
  0.7563756626645954  0.7129060362954104  0.4644528072320860   T   T   T
  0.9192003570236741  0.0092634846680734  0.3092892487251326   T   T   T
  0.0623721604606509  0.0519251382549323  0.2972110832716687   T   T   T
  0.2037679480284567  0.8884783159825247  0.2793397609128886   T   T   T
  0.3378633541606244  0.9426020789373181  0.2940354570184638   T   T   T
  0.2326955663599676  0.9949566248333302  0.3453146854296849   T   T   T
  0.2745549192468341  0.9908571937007326  0.3860910348203428   T   T   T
  0.6977624520496710  0.3251884013698358  0.3897696476583536   T   T   T
  0.8063777792397693  0.2883177229165654  0.3602287147303393   T   T   T
  0.5412388794410967  0.5427456598692224  0.2721108657201896   T   T   T
  0.6083326838168367  0.5934993352245855  0.3079253966824984   T   T   T
  0.1096293152071664  0.4820177626109595  0.5233144450254623   T   T   T
  0.0991389208245352  0.3260976796382937  0.5217845942373986   T   T   T
  0.5712574341228734  0.3900101903216706  0.5407251418773759   T   T   T
  0.4635064439240035  0.2912166754094826  0.5557311557756108   T   T   T
  0.1178643044100229  0.7450577301772130  0.4255669471486188   T   T   T
  0.2320137308679546  0.6470668937843997  0.4128652096693019   T   T   T
  0.5956128606034420  0.2231349420640410  0.3450470231477473   T   T   T
  0.4477008359384748  0.2118178031586922  0.3556190902260885   T   T   T
  0.3967542678471718  0.5710399828586062  0.5017075235479597   T   T   T
  0.3170477660847293  0.6206203476847829  0.4683137025325462   T   T   T
  0.0675634724494290  0.8140654672923531  0.2343400657701983   T   T   T
  0.2183834670203731  0.8035892402332706  0.2278016902789899   T   T   T
  0.9457254464917000  0.6291168233327485  0.2340811373282719   T   T   T
  0.9086651057401018  0.7188252383967441  0.2016755830175530   T   T   T
  0.4166597346231327  0.4813637250724482  0.2326543875514460   T   T   T
  0.4068625070943979  0.3763370476663875  0.2635224829050501   T   T   T
  0.7013997454815146  0.4721660855083246  0.3512122067417016   T   T   T
  0.6430794457932195  0.6122682932942234  0.3642214290037989   T   T   T
  0.4416433477980592  0.6613729640203714  0.2109653429886541   T   T   T
  0.3127401772892360  0.6059431588960260  0.1946636290825485   T   T   T
  0.4605854795740389  0.0597299208903630  0.2577376217646024   T   T   T
  0.5017932606535358  0.0711125347890523  0.2983740977098349   T   T   T
  0.7261932019770385  0.2927718426780798  0.4480760102173801   T   T   T
  0.5735171532502195  0.3208050707033307  0.4399001400057343   T   T   T
  0.0556833838196487  0.7182781744661997  0.5094928558545151   T   T   T
  0.1185376934059613  0.6450198479820457  0.4770577816422236   T   T   T
  0.4357090795447207  0.9201061283265325  0.4331583916552559   T   T   T
  0.2992200799633682  0.8391782586212655  0.4314456346663270   T   T   T
  0.9929286745172603  0.0035711900226289  0.4097262343929345   T   T   T
 -0.0073884862104689  0.1482884252624956  0.3938326552150528   T   T   T
  0.0160783695092120  0.3324575350714883  0.3475482325467841   T   T   T
 -0.0237918201742590  0.1926585095257812  0.3324958186853452   T   T   T
  0.6278628955803141  0.0314678428654152  0.5218178886995365   T   T   T
  0.5892205368921971  0.1826363408640313  0.5187349014618272   T   T   T
  0.3982226674933058  0.6369699273466469  0.3032707198436482   T   T   T
  0.2879035967300851  0.7457354627806357  0.3107094666779440   T   T   T
  0.4023392873017534  0.1307246538818721  0.1958420063034882   T   T   T
  0.4385885360074418  0.2457658900138630  0.2221200898036367   T   T   T
  0.7662285481657071  0.1394043790928158  0.4807170437145352   T   T   T
  0.8764601595508049  0.1434503758368644  0.4488074001781169   T   T   T
 -0.0057834040752507  0.6146692309518673  0.3407877915730458   T   T   T
  0.8421778440567677  0.6263743741473096  0.3496346869055328   T   T   T
  0.9882725641285240  0.9597832849532585  0.5192972450519288   T   T   T
  0.9177130294342503  0.8605946725362550  0.5454857460014780   T   T   T
  0.3087547393033180  0.6032973309895222  0.3549139089683270   T   T   T
  0.3048080214772576  0.4735095871602856  0.3784172338702939   T   T   T
  0.2641385148779925  0.0449533090736002  0.4510635713916286   T   T   T
  0.1393273771914209  0.1264265849878267  0.4415026937207016   T   T   T
  0.8772702907955142  0.4329670194302951  0.2461860848249765   T   T   T
  0.0276491317599703  0.4078286526818465  0.2388661553949178   T   T   T
  0.9128348226066465  0.8092670695939562  0.4289978558971300   T   T   T
  0.9609755655485899  0.7701538770926007  0.3897777903562709   T   T   T
  0.5690384567052489  0.6068750114042694  0.4621041132201326   T   T   T
  0.6750566804430885  0.5009146771211750  0.4545152359388933   T   T   T
  0.2395156381964464  0.3449998554642658  0.5651682932115211   T   T   T
  0.2897010921770704  0.2737503964955469  0.5999267885928123   T   T   T
  0.9292238776535511  0.3728407882994962  0.5539222781764495   T   T   T
  0.7862168466670086  0.3123939664532242  0.5549324267106063   T   T   T
  0.8546108727443557  0.6155744820315912  0.5686022555256321   T   T   T
  0.7802016888076284  0.5684878446650524  0.6004161862457629   T   T   T
  0.6899832136474204  0.8433010469592267  0.2548848664523459   T   T   T
  0.6386279530199044  0.6340363171153460  0.1695944077376751   T   T   T
 
  0.00000000E+00  0.00000000E+00  0.00000000E+00
  0.00000000E+00  0.00000000E+00  0.00000000E+00
  0.00000000E+00  0.00000000E+00  0.00000000E+00
  0.00000000E+00  0.00000000E+00  0.00000000E+00
  0.00000000E+00  0.00000000E+00  0.00000000E+00
  0.00000000E+00  0.00000000E+00  0.00000000E+00
  0.00000000E+00  0.00000000E+00  0.00000000E+00
  0.00000000E+00  0.00000000E+00  0.00000000E+00
  0.00000000E+00  0.00000000E+00  0.00000000E+00
  0.00000000E+00  0.00000000E+00  0.00000000E+00
  0.00000000E+00  0.00000000E+00  0.00000000E+00
  0.00000000E+00  0.00000000E+00  0.00000000E+00
  0.00000000E+00  0.00000000E+00  0.00000000E+00
  0.00000000E+00  0.00000000E+00  0.00000000E+00
  0.00000000E+00  0.00000000E+00  0.00000000E+00
  0.00000000E+00  0.00000000E+00  0.00000000E+00
  0.00000000E+00  0.00000000E+00  0.00000000E+00
  0.00000000E+00  0.00000000E+00  0.00000000E+00
  0.00000000E+00  0.00000000E+00  0.00000000E+00
  0.00000000E+00  0.00000000E+00  0.00000000E+00
  0.00000000E+00  0.00000000E+00  0.00000000E+00
  0.00000000E+00  0.00000000E+00  0.00000000E+00
  0.00000000E+00  0.00000000E+00  0.00000000E+00
  0.00000000E+00  0.00000000E+00  0.00000000E+00
  0.00000000E+00  0.00000000E+00  0.00000000E+00
  0.00000000E+00  0.00000000E+00  0.00000000E+00
  0.00000000E+00  0.00000000E+00  0.00000000E+00
  0.00000000E+00  0.00000000E+00  0.00000000E+00
  0.00000000E+00  0.00000000E+00  0.00000000E+00
  0.00000000E+00  0.00000000E+00  0.00000000E+00
  0.00000000E+00  0.00000000E+00  0.00000000E+00
  0.00000000E+00  0.00000000E+00  0.00000000E+00
  0.00000000E+00  0.00000000E+00  0.00000000E+00
  0.00000000E+00  0.00000000E+00  0.00000000E+00
  0.00000000E+00  0.00000000E+00  0.00000000E+00
  0.00000000E+00  0.00000000E+00  0.00000000E+00
  0.00000000E+00  0.00000000E+00  0.00000000E+00
  0.00000000E+00  0.00000000E+00  0.00000000E+00
  0.00000000E+00  0.00000000E+00  0.00000000E+00
  0.00000000E+00  0.00000000E+00  0.00000000E+00
  0.00000000E+00  0.00000000E+00  0.00000000E+00
  0.00000000E+00  0.00000000E+00  0.00000000E+00
  0.00000000E+00  0.00000000E+00  0.00000000E+00
  0.00000000E+00  0.00000000E+00  0.00000000E+00
  0.00000000E+00  0.00000000E+00  0.00000000E+00
  0.00000000E+00  0.00000000E+00  0.00000000E+00
  0.00000000E+00  0.00000000E+00  0.00000000E+00
  0.00000000E+00  0.00000000E+00  0.00000000E+00
  0.00000000E+00  0.00000000E+00  0.00000000E+00
  0.00000000E+00  0.00000000E+00  0.00000000E+00
  0.00000000E+00  0.00000000E+00  0.00000000E+00
  0.00000000E+00  0.00000000E+00  0.00000000E+00
  0.00000000E+00  0.00000000E+00  0.00000000E+00
  0.00000000E+00  0.00000000E+00  0.00000000E+00
  0.00000000E+00  0.00000000E+00  0.00000000E+00
  0.00000000E+00  0.00000000E+00  0.00000000E+00
  0.00000000E+00  0.00000000E+00  0.00000000E+00
  0.00000000E+00  0.00000000E+00  0.00000000E+00
  0.00000000E+00  0.00000000E+00  0.00000000E+00
  0.00000000E+00  0.00000000E+00  0.00000000E+00
  0.00000000E+00  0.00000000E+00  0.00000000E+00
  0.00000000E+00  0.00000000E+00  0.00000000E+00
  0.00000000E+00  0.00000000E+00  0.00000000E+00
  0.00000000E+00  0.00000000E+00  0.00000000E+00
  0.00000000E+00  0.00000000E+00  0.00000000E+00
  0.00000000E+00  0.00000000E+00  0.00000000E+00
  0.00000000E+00  0.00000000E+00  0.00000000E+00
  0.00000000E+00  0.00000000E+00  0.00000000E+00
  0.00000000E+00  0.00000000E+00  0.00000000E+00
  0.00000000E+00  0.00000000E+00  0.00000000E+00
  0.00000000E+00  0.00000000E+00  0.00000000E+00
  0.00000000E+00  0.00000000E+00  0.00000000E+00
  0.00000000E+00  0.00000000E+00  0.00000000E+00
  0.00000000E+00  0.00000000E+00  0.00000000E+00
  0.00000000E+00  0.00000000E+00  0.00000000E+00
  0.00000000E+00  0.00000000E+00  0.00000000E+00
  0.00000000E+00  0.00000000E+00  0.00000000E+00
  0.00000000E+00  0.00000000E+00  0.00000000E+00
  0.00000000E+00  0.00000000E+00  0.00000000E+00
  0.00000000E+00  0.00000000E+00  0.00000000E+00
  0.00000000E+00  0.00000000E+00  0.00000000E+00
  0.00000000E+00  0.00000000E+00  0.00000000E+00
  0.00000000E+00  0.00000000E+00  0.00000000E+00
  0.00000000E+00  0.00000000E+00  0.00000000E+00
  0.00000000E+00  0.00000000E+00  0.00000000E+00
  0.00000000E+00  0.00000000E+00  0.00000000E+00
  0.00000000E+00  0.00000000E+00  0.00000000E+00
  0.00000000E+00  0.00000000E+00  0.00000000E+00
  0.00000000E+00  0.00000000E+00  0.00000000E+00
  0.00000000E+00  0.00000000E+00  0.00000000E+00
  0.00000000E+00  0.00000000E+00  0.00000000E+00
  0.00000000E+00  0.00000000E+00  0.00000000E+00
  0.00000000E+00  0.00000000E+00  0.00000000E+00
  0.00000000E+00  0.00000000E+00  0.00000000E+00
  0.00000000E+00  0.00000000E+00  0.00000000E+00
  0.00000000E+00  0.00000000E+00  0.00000000E+00
  0.00000000E+00  0.00000000E+00  0.00000000E+00
  0.00000000E+00  0.00000000E+00  0.00000000E+00
  0.00000000E+00  0.00000000E+00  0.00000000E+00
  0.00000000E+00  0.00000000E+00  0.00000000E+00
  0.00000000E+00  0.00000000E+00  0.00000000E+00
  0.00000000E+00  0.00000000E+00  0.00000000E+00
  0.00000000E+00  0.00000000E+00  0.00000000E+00
  0.00000000E+00  0.00000000E+00  0.00000000E+00
  0.00000000E+00  0.00000000E+00  0.00000000E+00
  0.00000000E+00  0.00000000E+00  0.00000000E+00
  0.00000000E+00  0.00000000E+00  0.00000000E+00
  0.00000000E+00  0.00000000E+00  0.00000000E+00
  0.00000000E+00  0.00000000E+00  0.00000000E+00
  0.00000000E+00  0.00000000E+00  0.00000000E+00
  0.00000000E+00  0.00000000E+00  0.00000000E+00
  0.00000000E+00  0.00000000E+00  0.00000000E+00
  0.00000000E+00  0.00000000E+00  0.00000000E+00
  0.00000000E+00  0.00000000E+00  0.00000000E+00
  0.00000000E+00  0.00000000E+00  0.00000000E+00
  0.00000000E+00  0.00000000E+00  0.00000000E+00
  0.00000000E+00  0.00000000E+00  0.00000000E+00
  0.00000000E+00  0.00000000E+00  0.00000000E+00
  0.00000000E+00  0.00000000E+00  0.00000000E+00
  0.00000000E+00  0.00000000E+00  0.00000000E+00
  0.00000000E+00  0.00000000E+00  0.00000000E+00
  0.00000000E+00  0.00000000E+00  0.00000000E+00
  0.00000000E+00  0.00000000E+00  0.00000000E+00
  0.00000000E+00  0.00000000E+00  0.00000000E+00
  0.00000000E+00  0.00000000E+00  0.00000000E+00
  0.00000000E+00  0.00000000E+00  0.00000000E+00
  0.00000000E+00  0.00000000E+00  0.00000000E+00
  0.00000000E+00  0.00000000E+00  0.00000000E+00
  0.00000000E+00  0.00000000E+00  0.00000000E+00
  0.00000000E+00  0.00000000E+00  0.00000000E+00
  0.00000000E+00  0.00000000E+00  0.00000000E+00
  0.00000000E+00  0.00000000E+00  0.00000000E+00
  0.00000000E+00  0.00000000E+00  0.00000000E+00
  0.00000000E+00  0.00000000E+00  0.00000000E+00
  0.00000000E+00  0.00000000E+00  0.00000000E+00
  0.00000000E+00  0.00000000E+00  0.00000000E+00
  0.00000000E+00  0.00000000E+00  0.00000000E+00
  0.00000000E+00  0.00000000E+00  0.00000000E+00
  0.00000000E+00  0.00000000E+00  0.00000000E+00
  0.00000000E+00  0.00000000E+00  0.00000000E+00
  0.00000000E+00  0.00000000E+00  0.00000000E+00
  0.00000000E+00  0.00000000E+00  0.00000000E+00
  0.00000000E+00  0.00000000E+00  0.00000000E+00
  0.00000000E+00  0.00000000E+00  0.00000000E+00
  0.00000000E+00  0.00000000E+00  0.00000000E+00
  0.00000000E+00  0.00000000E+00  0.00000000E+00
  0.00000000E+00  0.00000000E+00  0.00000000E+00
  0.00000000E+00  0.00000000E+00  0.00000000E+00
  0.00000000E+00  0.00000000E+00  0.00000000E+00
  0.00000000E+00  0.00000000E+00  0.00000000E+00
  0.00000000E+00  0.00000000E+00  0.00000000E+00
  0.00000000E+00  0.00000000E+00  0.00000000E+00
  0.00000000E+00  0.00000000E+00  0.00000000E+00
  0.00000000E+00  0.00000000E+00  0.00000000E+00
  0.00000000E+00  0.00000000E+00  0.00000000E+00
  0.00000000E+00  0.00000000E+00  0.00000000E+00
  0.00000000E+00  0.00000000E+00  0.00000000E+00
  0.00000000E+00  0.00000000E+00  0.00000000E+00
  0.00000000E+00  0.00000000E+00  0.00000000E+00
  0.00000000E+00  0.00000000E+00  0.00000000E+00
  0.00000000E+00  0.00000000E+00  0.00000000E+00
  0.00000000E+00  0.00000000E+00  0.00000000E+00
  0.00000000E+00  0.00000000E+00  0.00000000E+00
  0.00000000E+00  0.00000000E+00  0.00000000E+00
  0.00000000E+00  0.00000000E+00  0.00000000E+00
  0.00000000E+00  0.00000000E+00  0.00000000E+00
  0.00000000E+00  0.00000000E+00  0.00000000E+00
  0.00000000E+00  0.00000000E+00  0.00000000E+00
  0.00000000E+00  0.00000000E+00  0.00000000E+00
  0.00000000E+00  0.00000000E+00  0.00000000E+00
  0.00000000E+00  0.00000000E+00  0.00000000E+00
  0.00000000E+00  0.00000000E+00  0.00000000E+00
  0.00000000E+00  0.00000000E+00  0.00000000E+00
  0.00000000E+00  0.00000000E+00  0.00000000E+00
  0.00000000E+00  0.00000000E+00  0.00000000E+00
  0.00000000E+00  0.00000000E+00  0.00000000E+00
  0.00000000E+00  0.00000000E+00  0.00000000E+00
  0.00000000E+00  0.00000000E+00  0.00000000E+00
  0.00000000E+00  0.00000000E+00  0.00000000E+00
  0.00000000E+00  0.00000000E+00  0.00000000E+00
  0.00000000E+00  0.00000000E+00  0.00000000E+00
  0.00000000E+00  0.00000000E+00  0.00000000E+00
  0.00000000E+00  0.00000000E+00  0.00000000E+00
  0.00000000E+00  0.00000000E+00  0.00000000E+00
  0.00000000E+00  0.00000000E+00  0.00000000E+00
  0.00000000E+00  0.00000000E+00  0.00000000E+00
  0.00000000E+00  0.00000000E+00  0.00000000E+00
  0.00000000E+00  0.00000000E+00  0.00000000E+00
  0.00000000E+00  0.00000000E+00  0.00000000E+00
  0.00000000E+00  0.00000000E+00  0.00000000E+00
  0.00000000E+00  0.00000000E+00  0.00000000E+00
  0.00000000E+00  0.00000000E+00  0.00000000E+00
  0.00000000E+00  0.00000000E+00  0.00000000E+00
  0.00000000E+00  0.00000000E+00  0.00000000E+00
  0.00000000E+00  0.00000000E+00  0.00000000E+00
  0.00000000E+00  0.00000000E+00  0.00000000E+00
  0.00000000E+00  0.00000000E+00  0.00000000E+00
  0.00000000E+00  0.00000000E+00  0.00000000E+00
