K Cu48 H98 C O51                        
   1.00000000000000     
    10.2239000000000004    0.0000000000000000    0.0000000000000000
     0.0000000000000000   10.2239000000000004    0.0000000000000000
     0.0000000000000000    0.0000000000000000   37.6114999999999995
   Cu   O    H    K    C 
    48    51    98     1     1
Selective dynamics
Direct
  0.7579300000000018  0.7579300000000018  0.0480500000000035   F   F   F
  0.0079300000000018  0.7579300000000018  0.0480500000000035   F   F   F
  0.2579300000000018  0.7579300000000018  0.0480500000000035   F   F   F
  0.5079300000000018  0.7579300000000018  0.0480500000000035   F   F   F
  0.7579300000000018  0.0079300000000018  0.0480500000000035   F   F   F
  0.0079300000000018  0.0079300000000018  0.0480500000000035   F   F   F
  0.2579300000000018  0.0079300000000018  0.0480500000000035   F   F   F
  0.5079300000000018  0.0079300000000018  0.0480500000000035   F   F   F
  0.7579300000000018  0.2579300000000018  0.0480500000000035   F   F   F
  0.0079300000000018  0.2579300000000018  0.0480500000000035   F   F   F
  0.2579300000000018  0.2579300000000018  0.0480500000000035   F   F   F
  0.5079300000000018  0.2579300000000018  0.0480500000000035   F   F   F
  0.7579300000000018  0.5079300000000018  0.0480500000000035   F   F   F
  0.0079300000000018  0.5079300000000018  0.0480500000000035   F   F   F
  0.2579300000000018  0.5079300000000018  0.0480500000000035   F   F   F
  0.5079300000000018  0.5079300000000018  0.0480500000000035   F   F   F
  0.7524740206671200  0.7512229629145570  0.1442760067655340   T   T   T
  0.8837523070084529  0.8785070988702905  0.0959092727080561   T   T   T
  0.0143029955976093  0.7664512314284976  0.1438100185443749   T   T   T
  0.1319641717848188  0.8808014957017314  0.0946227518577541   T   T   T
  0.2620389079681298  0.7589540517514517  0.1420255502668686   T   T   T
  0.3830114355032457  0.8847261026143448  0.0953288006224345   T   T   T
  0.5054272449483159  0.7579151705352034  0.1418204117569769   T   T   T
  0.6344318046935468  0.8790834253528702  0.0947141050309685   T   T   T
  0.7581832312346249  0.0022597115230644  0.1402454857256526   T   T   T
  0.8819608153848907  0.1330969163727665  0.0943551952696940   T   T   T
  0.0092935988844028  0.0108464721401460  0.1411799852287960   T   T   T
  0.1345973293529607  0.1323041160019762  0.0950047092751208   T   T   T
  0.2565836065535528  0.0074853201687577  0.1422987380975607   T   T   T
  0.3833683181622273  0.1326393679073541  0.0941868767915635   T   T   T
  0.5102245712564843  0.0071131764346410  0.1413541426682267   T   T   T
  0.6337581348524491  0.1338946429176893  0.0957217856738437   T   T   T
  0.7587453031097982  0.2538490538366827  0.1452204359971930   T   T   T
  0.8806378719218438  0.3823674665651288  0.0968375205616765   T   T   T
  0.0108364897180354  0.2541299903971750  0.1411793075968889   T   T   T
  0.1301099453844932  0.3847009319323038  0.0943730611031764   T   T   T
  0.2561468360852344  0.2597682464812729  0.1415727035940105   T   T   T
  0.3832024702059308  0.3815930365139525  0.0949052876809600   T   T   T
  0.5071892391300585  0.2575561275398598  0.1412940066966743   T   T   T
  0.6369889416615085  0.3827167980596260  0.0957070552091120   T   T   T
  0.7531340150274857  0.5105331393559621  0.1441596517014063   T   T   T
  0.8834035784998402  0.6316081763575642  0.0942098185532351   T   T   T
  0.0120832174223402  0.4999659280376744  0.1432334592192823   T   T   T
  0.1313772731855582  0.6340126811443101  0.0958511326213757   T   T   T
  0.2597398176728125  0.5099275038908572  0.1406380340290709   T   T   T
  0.3823435994856713  0.6342598357770574  0.0939641518540299   T   T   T
  0.5047923153209090  0.5075354347807903  0.1411265976047378   T   T   T
  0.6322469811211725  0.6318237041133307  0.0949040000556806   T   T   T
  0.5485744580523351  0.5449836037377153  0.2459998433184686   T   T   T
  0.6830798709928356  0.2778855249126627  0.4585027601625444   T   T   T
  0.3051202916398906  0.0575743317551662  0.3331724003673934   T   T   T
  0.8871253155847145  0.5536065789708459  0.5354581948138637   T   T   T
  0.2818013828150167  0.4249441500025563  0.4131787744872543   T   T   T
  0.5295797878591852  0.9521847890559926  0.4464535950285596   T   T   T
  0.3459608312285296  0.4081850341649437  0.2172845349803783   T   T   T
  0.3264661997713499  0.8359950483830125  0.4199118789816973   T   T   T
  0.7593845352484139  0.2194738589947657  0.2024133075130011   T   T   T
  0.0740178543795463  0.7045528052829012  0.2866487553999343   T   T   T
  0.4425367105936730  0.9397593595450808  0.2242928099988928   T   T   T
  0.1543371230630469  0.1412657371506328  0.2317017376696262   T   T   T
  0.6353858872138543  0.7054545312059651  0.4518737809575322   T   T   T
  0.0376751587605119  0.9440336396171539  0.2643068736435291   T   T   T
  0.6679132865251927  0.1061209984050383  0.4031159774216664   T   T   T
  0.6371280721295304  0.5536400586283043  0.5581417576062061   T   T   T
  0.4150035142735863  0.8653419456920426  0.2929709921969243   T   T   T
  0.3123660478880956  0.6430605792316822  0.3177630210322931   T   T   T
  0.1398902824597354  0.9589146359051299  0.3822730905384262   T   T   T
  0.6334099505317545  0.5534118319715164  0.3526823834834958   T   T   T
  0.9037568219843479  0.0772229795470293  0.3148402916952489   T   T   T
  0.9242083569619773  0.3455986827920434  0.4310327967539897   T   T   T
  0.6152252844166551  0.3113956467354865  0.5760227344057145   T   T   T
  0.8755897429082895  0.7079372831629044  0.4740355550931755   T   T   T
  0.5296815874801915  0.1849100535610476  0.3447455950242743   T   T   T
  0.2301685700072824  0.7529993494437414  0.4830805440490821   T   T   T
  0.8505825064844885  0.9720859023573456  0.2160409774147251   T   T   T
  0.1154118010372985  0.5248923676306637  0.2330879149633994   T   T   T
 -0.0404986539095178  0.3184219157453066  0.2424379236150254   T   T   T
  0.4620515745468201  0.4150832159470917  0.3038612311060369   T   T   T
  0.6536984725787327  0.7969099038768989  0.3239905461453575   T   T   T
  0.6675322535801553  0.1594735003653257  0.5231904565623334   T   T   T
  0.6611797673006050  0.0876919862167077  0.2862202667748350   T   T   T
  0.0900620547485957  0.5814689038940185  0.4424214574312557   T   T   T
  0.2628983093302282  0.1948836718810986  0.4901356921145425   T   T   T
  0.4326555782793143  0.3690129697797271  0.4655322691958525   T   T   T
  0.0764688467582643  0.1103251988758663  0.4384622341602294   T   T   T
  0.8834767737456881  0.4833141265955945  0.3663157732359831   T   T   T
  0.0176030489677244  0.3183069565839446  0.5155411578067564   T   T   T
 -0.0067963349595615  0.7290805330416398  0.3856611947233554   T   T   T
  0.5153512169653729  0.1940305946771281  0.2286317640527876   T   T   T
  0.4585571694238098  0.6040827250027268  0.5001876348946380   T   T   T
  0.8120455634021544  0.9238412251170987  0.3684779156616245   T   T   T
  0.0151767078027914  0.9252260266483162  0.4866358990514674   T   T   T
  0.9952742360375482  0.3245563975539711  0.3142543898386073   T   T   T
  0.4049168872325873  0.6276595730140280  0.3839696467213549   T   T   T
  0.2434636841958357  0.2643880077856740  0.2923038777523153   T   T   T
  0.4463011720881634  0.0121382618527713  0.5097888606851501   T   T   T
  0.9049999716760698  0.0785044799758514  0.5382349090992744   T   T   T
  0.9641267089340030  0.6368864926654142  0.1828239677106833   T   T   T
  0.7802084496283824  0.6113059705054447  0.2143970442612287   T   T   T
  0.4777641372979184  0.5090383532284429  0.2307187503213016   T   T   T
  0.6294061403735149  0.5470522376883578  0.2314827897039023   T   T   T
  0.6808016356824396  0.2086429671414503  0.4398956859641844   T   T   T
  0.6857786105212721  0.2330224090402686  0.4822935155379806   T   T   T
  0.2676258208965988  0.1285947295366079  0.3179259551294805   T   T   T
  0.2364134904067169  0.0258624339431430  0.3499952718415389   T   T   T
  0.8887529267254634  0.6080435103745728  0.5137380981105174   T   T   T
  0.9351738864310344  0.4724789363793097  0.5296877421832150   T   T   T
  0.2560517040559382  0.3471150087303082  0.4000814218214503   T   T   T
  0.3462672243060146  0.3964426348138042  0.4328505424251521   T   T   T
  0.4504417592685080  0.9173898569625577  0.4334907639251122   T   T   T
  0.5763280768576219  0.0131755587969786  0.4299122074125028   T   T   T
  0.2597118218862056  0.4509921813140263  0.2234803721606356   T   T   T
  0.3464620188390491  0.4046494853438983  0.1908735775474617   T   T   T
  0.2599851395327707  0.8819729752509555  0.4048729804681699   T   T   T
  0.3592207236814679  0.7579421349592457  0.4062854231262841   T   T   T
  0.6656202322468654  0.2173429332434317  0.2104006582942771   T   T   T
  0.7935037650971123  0.1286472626443549  0.2067873608805388   T   T   T
  0.0815181780620672  0.6391095005945615  0.2671400305728390   T   T   T
  0.1521132131035036  0.6858024008675797  0.3013394308111521   T   T   T
  0.3895007952909454  0.9032944763908477  0.2049498966681723   T   T   T
  0.4081203293053278  0.9081760676936241  0.2476917082173105   T   T   T
  0.1231793418602678  0.0553157119102758  0.2417274856441763   T   T   T
  0.1731300729065954  0.1293162388825407  0.2062618470192080   T   T   T
  0.5731969586129093  0.6674448099898267  0.4694490974715952   T   T   T
  0.6064814006997087  0.7976047487040441  0.4491256346090646   T   T   T
 -0.0050970915245367 -0.0110916073928482  0.2849732224281505   T   T   T
  0.0580551536646051  0.8505966250744907  0.2723402192761518   T   T   T
  0.7293787037898601  0.0406952170756471  0.3924589598169805   T   T   T
  0.6193617651232978  0.1449606602107607  0.3827586557858413   T   T   T
  0.7295477259385418  0.5555408088120228  0.5489529642751791   T   T   T
  0.5784429844446362  0.5770603641822323  0.5383969702719064   T   T   T
  0.3699152069871882  0.9352064128829883  0.3069755491146124   T   T   T
  0.3714089957954612  0.7810151648490615  0.3000043935498412   T   T   T
  0.3379638372023623  0.6432364179543617  0.3435442758383424   T   T   T
  0.3578096818964892  0.5640343160382340  0.3088472616350618   T   T   T
  0.0809978054870782  0.8826465791448630  0.3791662536685175   T   T   T
  0.1033960362681553  0.0174803531286428  0.4013591154658728   T   T   T
  0.7237683854066626  0.5200998123709611  0.3583095632495035   T   T   T
  0.5904895765272120  0.4910258323627876  0.3366805918424240   T   T   T
  0.8177429448052490  0.0879929864841282  0.3023075282499810   T   T   T
  0.8828218140834341  0.0223010930637032  0.3361598003565405   T   T   T
  0.8390814938598954  0.3301178919654548  0.4435073696684445   T   T   T
 -0.0280053849502138  0.4071604570566976  0.4462957703229746   T   T   T
  0.6189607188009056  0.4095026483489733  0.5696552621788223   T   T   T
  0.5343645529483952  0.2978365537473188  0.5890362589918654   T   T   T
  0.7808436247376295  0.7060628581505283  0.4652114456793782   T   T   T
  0.9267804914300377  0.6522574098551086  0.4580530972022966   T   T   T
  0.5136896483832081  0.2711360620619275  0.3337290830050984   T   T   T
  0.4437429274416922  0.1373557635212930  0.3440727391679962   T   T   T
  0.1609812371837328  0.8156494546600223  0.4904984732495652   T   T   T
  0.2658628693095251  0.7903448144974909  0.4604527208946123   T   T   T
  0.9256811596758466  0.9584386291397645  0.2332777911667661   T   T   T
  0.8791769150093747  0.9335153159114832  0.1931866677590225   T   T   T
  0.0517178413479322  0.4511424358628403  0.2363932745403061   T   T   T
  0.0716680131943184  0.5766675162146278  0.2139464670826285   T   T   T
  0.8789937059000564  0.3008566385524581  0.2283523695802135   T   T   T
  0.0228815420741721  0.2478549007765789  0.2360004981754609   T   T   T
  0.3845789152988077  0.3619330462046550  0.2964788547820019   T   T   T
  0.5060463418400251  0.4481325283115687  0.2817068084744447   T   T   T
  0.5649665483165283  0.8289010831592166  0.3176832051527226   T   T   T
  0.6430631993613803  0.7061925544580657  0.3334096538828351   T   T   T
  0.5920772439597130  0.0987311124869434  0.5211645830498536   T   T   T
  0.6434661182971725  0.2220125622688832  0.5436774464408985   T   T   T
  0.6126856705537129  0.1139990118230741  0.3080412256673682   T   T   T
  0.6199202223661009  0.1401270719360348  0.2672337716513981   T   T   T
  0.1410166929921759  0.6343147595328573  0.4601176512783415   T   T   T
  0.1549037241299745  0.5217531157372695  0.4312570661863942   T   T   T
  0.3148678927568278  0.1199509531829154  0.4994074885940143   T   T   T
  0.2061127454869225  0.1608398951683996  0.4708229254592378   T   T   T
  0.5240918540708430  0.3353142342802310  0.4619271825867693   T   T   T
  0.3773086023928221  0.2983265271574543  0.4767733436135301   T   T   T
  0.0395959874189625  0.0448196247938267  0.4558465844827456   T   T   T
  0.0154542116080132  0.1858376339289991  0.4369751678431245   T   T   T
  0.9241434481353638  0.4299531852498883  0.3470552312889597   T   T   T
  0.8956057583887425  0.4328025395853012  0.3887385865085057   T   T   T
  0.1100051731489141  0.2953603239595783  0.5123465392083841   T   T   T
  0.9782339396737557  0.2383113764640426  0.5256680551085724   T   T   T
  0.0311060302935935  0.6877237720316182  0.4073224531041412   T   T   T
  0.9593882379464581  0.6522550321364156  0.3724365659385001   T   T   T
  0.4749575041130545  0.1064254938326108  0.2242512129566814   T   T   T
  0.4463945990661585  0.2615827453337500  0.2264867657552574   T   T   T
  0.4411184938356685  0.5163062557360061  0.4897513318603253   T   T   T
  0.3748827589506697  0.6521464781834558  0.4994638238447792   T   T   T
  0.8680440788187151  0.8547575322680742  0.3790591968627022   T   T   T
  0.7473826350322833  0.8762549131431006  0.3528124403533893   T   T   T
  0.9540338718760164  0.8506211509917362  0.4812038841287946   T   T   T
  0.9764576197278543  0.9722240909934116  0.5073613516372767   T   T   T
  0.9629792359329240  0.2333346054363774  0.3189107785927349   T   T   T
  0.9653531135625038  0.3388927463218297  0.2893104348544630   T   T   T
  0.3628234133140568  0.5469585197811494  0.3938337278838360   T   T   T
  0.4981918263061355  0.6055724069878111  0.3794536296770379   T   T   T
  0.1567205316629825  0.2973102444179028  0.3011386837449135   T   T   T
  0.2262557681069774  0.2291334759232238  0.2681267502104148   T   T   T
  0.4792911268745120  0.9870250682443519  0.4851263022645830   T   T   T
  0.4263376264284333  0.9304488557824031  0.5219276512351453   T   T   T
  0.8096328246209517  0.1005169507416292  0.5334860155852557   T   T   T
  0.9102904296702180  0.0548735474509785  0.5632326921066944   T   T   T
  0.6698721380447464  0.8184278548471283  0.2502819238011566   T   T   T
  0.8320442464717994  0.6228137188973877  0.1843615838092545   T   T   T
 
  0.00000000E+00  0.00000000E+00  0.00000000E+00
  0.00000000E+00  0.00000000E+00  0.00000000E+00
  0.00000000E+00  0.00000000E+00  0.00000000E+00
  0.00000000E+00  0.00000000E+00  0.00000000E+00
  0.00000000E+00  0.00000000E+00  0.00000000E+00
  0.00000000E+00  0.00000000E+00  0.00000000E+00
  0.00000000E+00  0.00000000E+00  0.00000000E+00
  0.00000000E+00  0.00000000E+00  0.00000000E+00
  0.00000000E+00  0.00000000E+00  0.00000000E+00
  0.00000000E+00  0.00000000E+00  0.00000000E+00
  0.00000000E+00  0.00000000E+00  0.00000000E+00
  0.00000000E+00  0.00000000E+00  0.00000000E+00
  0.00000000E+00  0.00000000E+00  0.00000000E+00
  0.00000000E+00  0.00000000E+00  0.00000000E+00
  0.00000000E+00  0.00000000E+00  0.00000000E+00
  0.00000000E+00  0.00000000E+00  0.00000000E+00
  0.00000000E+00  0.00000000E+00  0.00000000E+00
  0.00000000E+00  0.00000000E+00  0.00000000E+00
  0.00000000E+00  0.00000000E+00  0.00000000E+00
  0.00000000E+00  0.00000000E+00  0.00000000E+00
  0.00000000E+00  0.00000000E+00  0.00000000E+00
  0.00000000E+00  0.00000000E+00  0.00000000E+00
  0.00000000E+00  0.00000000E+00  0.00000000E+00
  0.00000000E+00  0.00000000E+00  0.00000000E+00
  0.00000000E+00  0.00000000E+00  0.00000000E+00
  0.00000000E+00  0.00000000E+00  0.00000000E+00
  0.00000000E+00  0.00000000E+00  0.00000000E+00
  0.00000000E+00  0.00000000E+00  0.00000000E+00
  0.00000000E+00  0.00000000E+00  0.00000000E+00
  0.00000000E+00  0.00000000E+00  0.00000000E+00
  0.00000000E+00  0.00000000E+00  0.00000000E+00
  0.00000000E+00  0.00000000E+00  0.00000000E+00
  0.00000000E+00  0.00000000E+00  0.00000000E+00
  0.00000000E+00  0.00000000E+00  0.00000000E+00
  0.00000000E+00  0.00000000E+00  0.00000000E+00
  0.00000000E+00  0.00000000E+00  0.00000000E+00
  0.00000000E+00  0.00000000E+00  0.00000000E+00
  0.00000000E+00  0.00000000E+00  0.00000000E+00
  0.00000000E+00  0.00000000E+00  0.00000000E+00
  0.00000000E+00  0.00000000E+00  0.00000000E+00
  0.00000000E+00  0.00000000E+00  0.00000000E+00
  0.00000000E+00  0.00000000E+00  0.00000000E+00
  0.00000000E+00  0.00000000E+00  0.00000000E+00
  0.00000000E+00  0.00000000E+00  0.00000000E+00
  0.00000000E+00  0.00000000E+00  0.00000000E+00
  0.00000000E+00  0.00000000E+00  0.00000000E+00
  0.00000000E+00  0.00000000E+00  0.00000000E+00
  0.00000000E+00  0.00000000E+00  0.00000000E+00
  0.00000000E+00  0.00000000E+00  0.00000000E+00
  0.00000000E+00  0.00000000E+00  0.00000000E+00
  0.00000000E+00  0.00000000E+00  0.00000000E+00
  0.00000000E+00  0.00000000E+00  0.00000000E+00
  0.00000000E+00  0.00000000E+00  0.00000000E+00
  0.00000000E+00  0.00000000E+00  0.00000000E+00
  0.00000000E+00  0.00000000E+00  0.00000000E+00
  0.00000000E+00  0.00000000E+00  0.00000000E+00
  0.00000000E+00  0.00000000E+00  0.00000000E+00
  0.00000000E+00  0.00000000E+00  0.00000000E+00
  0.00000000E+00  0.00000000E+00  0.00000000E+00
  0.00000000E+00  0.00000000E+00  0.00000000E+00
  0.00000000E+00  0.00000000E+00  0.00000000E+00
  0.00000000E+00  0.00000000E+00  0.00000000E+00
  0.00000000E+00  0.00000000E+00  0.00000000E+00
  0.00000000E+00  0.00000000E+00  0.00000000E+00
  0.00000000E+00  0.00000000E+00  0.00000000E+00
  0.00000000E+00  0.00000000E+00  0.00000000E+00
  0.00000000E+00  0.00000000E+00  0.00000000E+00
  0.00000000E+00  0.00000000E+00  0.00000000E+00
  0.00000000E+00  0.00000000E+00  0.00000000E+00
  0.00000000E+00  0.00000000E+00  0.00000000E+00
  0.00000000E+00  0.00000000E+00  0.00000000E+00
  0.00000000E+00  0.00000000E+00  0.00000000E+00
  0.00000000E+00  0.00000000E+00  0.00000000E+00
  0.00000000E+00  0.00000000E+00  0.00000000E+00
  0.00000000E+00  0.00000000E+00  0.00000000E+00
  0.00000000E+00  0.00000000E+00  0.00000000E+00
  0.00000000E+00  0.00000000E+00  0.00000000E+00
  0.00000000E+00  0.00000000E+00  0.00000000E+00
  0.00000000E+00  0.00000000E+00  0.00000000E+00
  0.00000000E+00  0.00000000E+00  0.00000000E+00
  0.00000000E+00  0.00000000E+00  0.00000000E+00
  0.00000000E+00  0.00000000E+00  0.00000000E+00
  0.00000000E+00  0.00000000E+00  0.00000000E+00
  0.00000000E+00  0.00000000E+00  0.00000000E+00
  0.00000000E+00  0.00000000E+00  0.00000000E+00
  0.00000000E+00  0.00000000E+00  0.00000000E+00
  0.00000000E+00  0.00000000E+00  0.00000000E+00
  0.00000000E+00  0.00000000E+00  0.00000000E+00
  0.00000000E+00  0.00000000E+00  0.00000000E+00
  0.00000000E+00  0.00000000E+00  0.00000000E+00
  0.00000000E+00  0.00000000E+00  0.00000000E+00
  0.00000000E+00  0.00000000E+00  0.00000000E+00
  0.00000000E+00  0.00000000E+00  0.00000000E+00
  0.00000000E+00  0.00000000E+00  0.00000000E+00
  0.00000000E+00  0.00000000E+00  0.00000000E+00
  0.00000000E+00  0.00000000E+00  0.00000000E+00
  0.00000000E+00  0.00000000E+00  0.00000000E+00
  0.00000000E+00  0.00000000E+00  0.00000000E+00
  0.00000000E+00  0.00000000E+00  0.00000000E+00
  0.00000000E+00  0.00000000E+00  0.00000000E+00
  0.00000000E+00  0.00000000E+00  0.00000000E+00
  0.00000000E+00  0.00000000E+00  0.00000000E+00
  0.00000000E+00  0.00000000E+00  0.00000000E+00
  0.00000000E+00  0.00000000E+00  0.00000000E+00
  0.00000000E+00  0.00000000E+00  0.00000000E+00
  0.00000000E+00  0.00000000E+00  0.00000000E+00
  0.00000000E+00  0.00000000E+00  0.00000000E+00
  0.00000000E+00  0.00000000E+00  0.00000000E+00
  0.00000000E+00  0.00000000E+00  0.00000000E+00
  0.00000000E+00  0.00000000E+00  0.00000000E+00
  0.00000000E+00  0.00000000E+00  0.00000000E+00
  0.00000000E+00  0.00000000E+00  0.00000000E+00
  0.00000000E+00  0.00000000E+00  0.00000000E+00
  0.00000000E+00  0.00000000E+00  0.00000000E+00
  0.00000000E+00  0.00000000E+00  0.00000000E+00
  0.00000000E+00  0.00000000E+00  0.00000000E+00
  0.00000000E+00  0.00000000E+00  0.00000000E+00
  0.00000000E+00  0.00000000E+00  0.00000000E+00
  0.00000000E+00  0.00000000E+00  0.00000000E+00
  0.00000000E+00  0.00000000E+00  0.00000000E+00
  0.00000000E+00  0.00000000E+00  0.00000000E+00
  0.00000000E+00  0.00000000E+00  0.00000000E+00
  0.00000000E+00  0.00000000E+00  0.00000000E+00
  0.00000000E+00  0.00000000E+00  0.00000000E+00
  0.00000000E+00  0.00000000E+00  0.00000000E+00
  0.00000000E+00  0.00000000E+00  0.00000000E+00
  0.00000000E+00  0.00000000E+00  0.00000000E+00
  0.00000000E+00  0.00000000E+00  0.00000000E+00
  0.00000000E+00  0.00000000E+00  0.00000000E+00
  0.00000000E+00  0.00000000E+00  0.00000000E+00
  0.00000000E+00  0.00000000E+00  0.00000000E+00
  0.00000000E+00  0.00000000E+00  0.00000000E+00
  0.00000000E+00  0.00000000E+00  0.00000000E+00
  0.00000000E+00  0.00000000E+00  0.00000000E+00
  0.00000000E+00  0.00000000E+00  0.00000000E+00
  0.00000000E+00  0.00000000E+00  0.00000000E+00
  0.00000000E+00  0.00000000E+00  0.00000000E+00
  0.00000000E+00  0.00000000E+00  0.00000000E+00
  0.00000000E+00  0.00000000E+00  0.00000000E+00
  0.00000000E+00  0.00000000E+00  0.00000000E+00
  0.00000000E+00  0.00000000E+00  0.00000000E+00
  0.00000000E+00  0.00000000E+00  0.00000000E+00
  0.00000000E+00  0.00000000E+00  0.00000000E+00
  0.00000000E+00  0.00000000E+00  0.00000000E+00
  0.00000000E+00  0.00000000E+00  0.00000000E+00
  0.00000000E+00  0.00000000E+00  0.00000000E+00
  0.00000000E+00  0.00000000E+00  0.00000000E+00
  0.00000000E+00  0.00000000E+00  0.00000000E+00
  0.00000000E+00  0.00000000E+00  0.00000000E+00
  0.00000000E+00  0.00000000E+00  0.00000000E+00
  0.00000000E+00  0.00000000E+00  0.00000000E+00
  0.00000000E+00  0.00000000E+00  0.00000000E+00
  0.00000000E+00  0.00000000E+00  0.00000000E+00
  0.00000000E+00  0.00000000E+00  0.00000000E+00
  0.00000000E+00  0.00000000E+00  0.00000000E+00
  0.00000000E+00  0.00000000E+00  0.00000000E+00
  0.00000000E+00  0.00000000E+00  0.00000000E+00
  0.00000000E+00  0.00000000E+00  0.00000000E+00
  0.00000000E+00  0.00000000E+00  0.00000000E+00
  0.00000000E+00  0.00000000E+00  0.00000000E+00
  0.00000000E+00  0.00000000E+00  0.00000000E+00
  0.00000000E+00  0.00000000E+00  0.00000000E+00
  0.00000000E+00  0.00000000E+00  0.00000000E+00
  0.00000000E+00  0.00000000E+00  0.00000000E+00
  0.00000000E+00  0.00000000E+00  0.00000000E+00
  0.00000000E+00  0.00000000E+00  0.00000000E+00
  0.00000000E+00  0.00000000E+00  0.00000000E+00
  0.00000000E+00  0.00000000E+00  0.00000000E+00
  0.00000000E+00  0.00000000E+00  0.00000000E+00
  0.00000000E+00  0.00000000E+00  0.00000000E+00
  0.00000000E+00  0.00000000E+00  0.00000000E+00
  0.00000000E+00  0.00000000E+00  0.00000000E+00
  0.00000000E+00  0.00000000E+00  0.00000000E+00
  0.00000000E+00  0.00000000E+00  0.00000000E+00
  0.00000000E+00  0.00000000E+00  0.00000000E+00
  0.00000000E+00  0.00000000E+00  0.00000000E+00
  0.00000000E+00  0.00000000E+00  0.00000000E+00
  0.00000000E+00  0.00000000E+00  0.00000000E+00
  0.00000000E+00  0.00000000E+00  0.00000000E+00
  0.00000000E+00  0.00000000E+00  0.00000000E+00
  0.00000000E+00  0.00000000E+00  0.00000000E+00
  0.00000000E+00  0.00000000E+00  0.00000000E+00
  0.00000000E+00  0.00000000E+00  0.00000000E+00
  0.00000000E+00  0.00000000E+00  0.00000000E+00
  0.00000000E+00  0.00000000E+00  0.00000000E+00
  0.00000000E+00  0.00000000E+00  0.00000000E+00
  0.00000000E+00  0.00000000E+00  0.00000000E+00
  0.00000000E+00  0.00000000E+00  0.00000000E+00
  0.00000000E+00  0.00000000E+00  0.00000000E+00
  0.00000000E+00  0.00000000E+00  0.00000000E+00
  0.00000000E+00  0.00000000E+00  0.00000000E+00
  0.00000000E+00  0.00000000E+00  0.00000000E+00
  0.00000000E+00  0.00000000E+00  0.00000000E+00
  0.00000000E+00  0.00000000E+00  0.00000000E+00
  0.00000000E+00  0.00000000E+00  0.00000000E+00
  0.00000000E+00  0.00000000E+00  0.00000000E+00
  0.00000000E+00  0.00000000E+00  0.00000000E+00
  0.00000000E+00  0.00000000E+00  0.00000000E+00
  0.00000000E+00  0.00000000E+00  0.00000000E+00
