Ni C  O 
 1.0000000000000000
     7.4755328907041809    0.0000000000000000    0.0000000000000000
     3.7377664453520905    6.4740013901759390    0.0000000000000000
     0.0000000000000000    0.0000000000000000   21.1037470458727228
 Ni  C   O  
  36   1   1
Cartesian
  0.0000000000000000  0.0000000000000000  7.4999999999999991
  2.4918442969013936  0.0000000000000000  7.4999999999999991
  4.9836885938027873  0.0000000000000000  7.4999999999999991
  1.2459221484506968  2.1580004633919794  7.4999999999999991
  3.7377664453520905  2.1580004633919794  7.4999999999999991
  6.2296107422534845  2.1580004633919794  7.4999999999999991
  2.4918442969013936  4.3160009267839587  7.4999999999999991
  4.9836885938027873  4.3160009267839587  7.4999999999999991
  7.4755328907041809  4.3160009267839587  7.4999999999999991
  1.2459221484506968  0.7193334877973264  9.5345823486242409
  3.7377664453520905  0.7193334877973264  9.5345823486242409
  6.2296107422534837  0.7193334877973264  9.5345823486242409
  2.4918442969013936  2.8773339511893057  9.5345823486242409
  4.9836885938027873  2.8773339511893057  9.5345823486242409
  7.4755328907041809  2.8773339511893057  9.5345823486242409
  3.7377664453520905  5.0353344145812855  9.5345823486242409
  6.2296107422534845  5.0353344145812855  9.5345823486242409
  8.7214550391548773  5.0353344145812855  9.5345823486242409
 -0.0000000000000000  1.4386669755946528 11.5691646972484818
  2.4918442969013936  1.4386669755946528 11.5691646972484818
  4.9836885938027873  1.4386669755946528 11.5691646972484818
  1.2459221484506966  3.5966674389866320 11.5691646972484818
  3.7377664453520905  3.5966674389866320 11.5691646972484818
  6.2296107422534837  3.5966674389866320 11.5691646972484818
  2.4918442969013936  5.7546679023786114 11.5691646972484818
  4.9836885938027873  5.7546679023786114 11.5691646972484818
  7.4755328907041809  5.7546679023786114 11.5691646972484818
  0.0000000000000000  0.0000000000000000 13.6037470458727228
  2.4918442969013936  0.0000000000000000 13.6037470458727228
  4.9836885938027873  0.0000000000000000 13.6037470458727228
  1.2459221484506968  2.1580004633919794 13.6037470458727228
  3.7377664453520905  2.1580004633919794 13.6037470458727228
  6.2296107422534845  2.1580004633919794 13.6037470458727228
  2.4918442969013936  4.3160009267839587 13.6037470458727228
  4.9836885938027873  4.3160009267839587 13.6037470458727228
  7.4755328907041809  4.3160009267839587 13.6037470458727228
  2.4918442969013936  1.4386669755946531 14.8537470458727228
  4.9836885938027873  1.4386669755946531 14.8537470458727228
