Ni Cu
 1.0000000000000000
    15.1777496999999979    0.0000000000000000    0.0000000000000000
     7.5888748199999974   13.1443192200000070    0.0000000000000000
     0.0000000000000000    0.0000000000000000   21.1962931800000014
 Ni  Cu 
   3 141
Cartesian
  6.3239605527405587 10.9536573244510791  7.5048451200853457
  3.7943355371417162  6.5722175737628232  7.5048451240181588
  1.2647106731479918  2.1907778445673269  7.5048451320379623
 11.3719124557642282 10.9601802238366570  7.4296002064142606
  8.8422874427960156  6.5787404896383883  7.4296002138227903
  6.3126625768989939  2.1973007416414188  7.4296002270783665
 16.4542506337105365 10.9468502051936554  7.4298716146380341
 13.9246256189206541  6.5654104732164136  7.4298716233969957
 11.3950007531077304  2.1839707282103307  7.4298716356331482
  8.8297678424690424 10.9585759050352500  7.4310906223874138
  6.3001428305663891  6.5771361614154493  7.4310906289820480
  3.7705179658273806  2.1956964169310238  7.4310906419798606
 13.9128544863994108 10.9536459114572313  7.4319362618402947
 11.3832294741797178  6.5722061771421458  7.4319362700414686
  8.8536046067576937  2.1907664314988446  7.4319362830739557
 18.9963267950639647 10.9480809931697927  7.4332093668730010
 16.4667017793531656  6.5666412564266956  7.4332093744800796
 13.9370769122603679  2.1852015197488832  7.4332093855182793
  2.5133547438007025  0.0182253482570941  7.4310906382516349
  7.5726045591518218  8.7811048457891339  7.4310906183574508
  5.0429796184420717  4.3996650991368282  7.4310906336632181
  7.5887924934985076  0.0000471335468956  7.4319362780045273
 12.6480423077678150  8.7629266310978409  7.4319362598452292
 10.1184173678081741  4.3814868910978966  7.4319362762829462
 12.6649729366928341 -0.0181476098006897  7.4332093842743561
 17.7242227516120252  8.7447318807250429  7.4332093682240634
 15.1945978117945124  4.3632921474014070  7.4332093825625529
  0.0002418896712505 -0.0001404597872993  7.4356729674426347
  5.0594917053125616  8.7627390248927597  7.4356729516704219
  2.5298667648457922  4.3812992840354203  7.4356729657873011
  5.0513514188535176  0.0045593795152816  7.4311940010824182
 10.1106012335513284  8.7674388774814034  7.4311939826339533
  7.5809762935620553  4.3859991353290271  7.4311939985555036
 10.1259803618004867 -0.0043197152808867  7.4302826734582537
 15.1852301761709896  8.7585597807262268  7.4302826559839206
 12.6556052365931375  4.3771200425172072  7.4302826719841910
  8.8486446105438752  9.4960302448342890  9.5469087528673331
  6.3190196809662895  5.1145905001447201  9.5469087648799427
  3.7893947879601582  0.7331507642515136  9.5469087819497300
 13.9149613476985792  9.4919501999134965  9.5478189510067306
 11.3853364179921925  5.1105104586489309  9.5478189619692042
  8.8557115229448105  0.7290707218327052  9.5478189774060063
 18.9749928048032608  9.4914989796010136  9.5501457951438411
 16.4453678762577056  5.1100592373599332  9.5501458077232311
 13.9157429784574624  0.7286195033431013  9.5501458225207170
  6.3204667972364286  9.4944094497204201  9.5504489788592810
  3.7908418675745699  5.1129697064795661  9.5504489902820637
  1.2612169726753475  0.7315299729104247  9.5504490060694032
 11.3820139533037423  9.4938380756228842  9.5472683984772555
  8.8523890229678699  5.1123983345129567  9.5472684096231752
  6.3227641291798360  0.7309585969077308  9.5472684251901523
 16.4473948770170182  9.4903165524093165  9.5467044418882470
 13.9177699479850894  5.1088768111127534  9.5467044535137759
 11.3881450523449121  0.7274370736673459  9.5467044684693363
  7.5859593717225549 11.6863072549778391  9.5504489790576805
  5.0563343929223095  7.3048675037398674  9.5504489860519683
  2.5267095028700268  2.9234277695964734  9.5504490026655962
 12.6468527324390863 11.6846034550375233  9.5472683978882973
 10.1172277545648388  7.3031637095028188  9.5472684041351918
  7.5876028635332036  2.9217239746754808  9.5472684197841460
 17.7122178729040627 11.6810545923622584  9.5467044402532952
 15.1825928959131922  7.2996148454808596  9.5467044466422859
 12.6529680034151681  2.9181751119917245  9.5467044619315686
 10.1134992640486931 11.6867257739240564  9.5439831900027912
  7.5838742849170018  7.3052860277853409  9.5439831940424664
  5.0542493950510101  2.9238462918001926  9.5439832110233311
 15.1799608110963007 11.6825621266998141  9.5471858581597502
 12.6503358352653734  7.3011223806554550  9.5471858646939118
 10.1207109428778956  2.9196826465787153  9.5471858803228660
 20.2389915580385740 11.6826886652923392  9.5527477839456569
 17.7093665799815980  7.3012489173194162  9.5527477929273168
 15.1797416897053470  2.9198091843857621  9.5527478047326273
  8.8524627322101495 12.4147859346713574 11.6401501693847607
  6.3228377856949702  8.0333461948368612 11.6401501542558385
  3.7932128615440552  3.6519064533737127 11.6401501844725388
 13.9131856503917763 12.4139354883292281 11.6447078471965622
 11.3835607043624769  8.0324957488363697 11.6447078337751808
  8.8539357797426561  3.6510560073720542 11.6447078612177091
 18.9731689672748800 12.4135120493535531 11.6438618104655660
 16.4435440204035714  8.0320723105927527 11.6438617983532993
 13.9139190968866799  3.6506325676972402 11.6438618244280860
 11.3823613261996410 12.4145556072226082 11.6426748176417423
  8.8527363791376921  8.0331158681006798 11.6426748029966962
  6.3231114548922989  3.6516761265120410 11.6426748305125898
 16.4433673890474523 12.4134980662022461 11.6445635455179257
 13.9137424434225228  8.0320583264944876 11.6445635322295864
 11.3841175190637109  3.6506185850325950 11.6445635595861123
 21.5018995457559683 12.4139862986632696 11.6438236270932975
 18.9722745997753925  8.0325465594190089 11.6438236128018264
 16.4426496751545557  3.6511068175320793 11.6438236401968940
 10.1176114957617802 10.2239442524335384 11.6426748027538185
  7.5879865619707569  5.8425045129334201 11.6426748145239891
  5.0583616403763623  1.4610647737839604 11.6426748303605496
 15.1786553353162610 10.2229521400187959 11.6445635323507588
 12.6490304011639747  5.8415124003706778 11.6445635441953534
 10.1194054788824630  1.4600726623258955 11.6445635590138163
 20.2371235433428893 10.2233296101624997 11.6438236139304951
 17.7074986097028386  5.8418898697890649 11.6438236271272846
 15.1778736870949391  1.4604501326096782 11.6438236401476356
  7.5877061194136619 10.2240338186697954 11.6419634309497564
  5.0580811847787848  5.8425940775940628 11.6419634440172963
  2.5284562637475503  1.4611543397044902 11.6419634594389922
 12.6483148312042637 10.2232493059672311 11.6449440693288686
 10.1186898970257069  5.8418095665670071 11.6449440812500846
  7.5890649750408663  1.4603698279897126 11.6449440960493220
 17.7080720735607429 10.2229563919657629 11.6445175594719288
 15.1784471392933646  5.8415166524606459 11.6445175718878033
 12.6488222170294886  1.4600769141438474 11.6445175865202160
  6.3240634901323540 10.9535986465581008 13.7621027370653017
  3.7944385512710048  6.5721589162138674 13.7621027465853860
  1.2648136149094211  2.1907191715863537 13.7621027745185831
 11.3828430788025301 10.9538701814458612 13.7636427537487602
  8.8532181399433618  6.5724304508092590 13.7636427635786447
  6.3235932037221190  2.1909907062842544 13.7636427915289072
 16.4430020471241889 10.9533453302737165 13.7646583727013923
 13.9133771082924884  6.5719055996571223 13.7646583827426738
 11.3837521721419268  2.1904658551020728 13.7646584110348300
  8.8529176939713103 10.9541008069644690 13.7608174086295758
  6.3232927552124893  6.5726610762216309 13.7608174191019845
  3.7936678187617869  2.1912213311454858 13.7608174475065219
 13.9131983388632818 10.9534322283557479 13.7646252821150945
 11.3835734000517199  6.5719924976607809 13.7646252921413801
  8.8539484637416166  2.1905527531294573 13.7646253204260063
 18.9726983463129031 10.9533130031852792 13.7635242725590121
 16.4430734074545839  6.5718732728321285 13.7635242824425532
 13.9134484715068734  2.1904335281367771 13.7635243101403475
  2.5288058350504632  0.0004157040747787 13.7608174311447051
  7.5880557155224384  8.7632951881402974 13.7608174117296826
  5.0584307782400710  4.3818554540897168 13.7608174341394136
  7.5891501120474834 -0.0001426601049905 13.7646253023571248
 12.6483999928709530  8.7627368241068400 13.7646252837069039
 10.1187750552404196  4.3812970897637893 13.7646253055933343
 12.6486283176829364 -0.0002996469545991 13.7635242935479667
 17.7078781985458704  8.7625798370583325 13.7635242737439789
 15.1782532609486811  4.3811401026727816 13.7635242959735393
 -0.0000678563057019  0.0000391317981964 13.7616162116909404
  5.0591820242932579  8.7629186154052121 13.7616161926470735
  2.5295570864308972  4.3814788815632495 13.7616162147858336
  5.0586462903147948  0.0003484492796969 13.7633628206483287
 10.1178961710325108  8.7632279335415397 13.7633628018818843
  7.5882712334322511  4.3817881992243288 13.7633628237375092
 10.1192023229446004 -0.0004056472735129 13.7638772164210721
 15.1784522041322383  8.7624738367887893 13.7638771969363027
 12.6488272665832042  4.3810341024283606 13.7638772188372265
