Cu
 1.0000000000000000
    15.1777496999999979    0.0000000000000000    0.0000000000000000
     7.5888748199999974   13.1443192200000070    0.0000000000000000
     0.0000000000000000    0.0000000000000000   21.1962931800000014
 Cu 
 144
Cartesian
  6.3240624977869926 10.9535985592930878  7.4299443261407747
  3.7944374192973642  6.5721587070182030  7.4299443459201040
  1.2648126178777928  2.1907190794030713  7.4299443472552129
 11.3833123977869946 10.9535985592930878  7.4299443261407747
  8.8536873192973662  6.5721587070182039  7.4299443459201040
  6.3240625178777936  2.1907190794030673  7.4299443472552102
 16.4425622977869921 10.9535985592930984  7.4299443261407747
 13.9129372192973655  6.5721587070182039  7.4299443459201040
 11.3833124178777965  2.1907190794030709  7.4299443472552094
  8.8536874477869887 10.9535985592930949  7.4299443261407676
  6.3240623692973621  6.5721587070182039  7.4299443459201093
  3.7944375678777913  2.1907190794030709  7.4299443472552165
 13.9129373477869862 10.9535985592930896  7.4299443261407676
 11.3833122692973561  6.5721587070182039  7.4299443459201102
  8.8536874678777941  2.1907190794030655  7.4299443472552165
 18.9721872477869979 10.9535985592930913  7.4299443261407676
 16.4425621692973678  6.5721587070181950  7.4299443459201093
 13.9129373678777899  2.1907190794030655  7.4299443472552102
  2.5296250406129333 -0.0000010573947013  7.4299443648363299
  7.5888748563661483  8.7628786859905006  7.4299443565752803
  5.0592499163617237  4.3814389459014036  7.4299443321845295
  7.5888749406129339 -0.0000010573947016  7.4299443648363299
 12.6481247563661547  8.7628786859905006  7.4299443565752803
 10.1184998163617106  4.3814389459014036  7.4299443321845295
 12.6481248406129279 -0.0000010573946995  7.4299443648363388
 17.7073746563661487  8.7628786859905023  7.4299443565752821
 15.1777497163617063  4.3814389459014018  7.4299443321845287
  0.0000000906129293 -0.0000010573946976  7.4299443648363361
  5.0592499063661398  8.7628786859905023  7.4299443565752794
  2.5296249663617152  4.3814389459014036  7.4299443321845349
  5.0592499906129325 -0.0000010573946978  7.4299443648363361
 10.1184998063661418  8.7628786859905130  7.4299443565752794
  7.5888748663617198  4.3814389459014045  7.4299443321845349
 10.1184998906129291 -0.0000010573946982  7.4299443648363264
 15.1777497063661571  8.7628786859905023  7.4299443565752794
 12.6481247663617076  4.3814389459014054  7.4299443321845269
  8.8536873048254083  9.4931188435478582  9.5492239830391394
  6.3240623726540548  5.1116790535049468  9.5492240303712013
  3.7944375448809824  0.7302393809942540  9.5492240347504360
 13.9129372048254112  9.4931188435478440  9.5492239830391394
 11.3833122726540541  5.1116790535049415  9.5492240303712030
  8.8536874448809790  0.7302393809942488  9.5492240347504360
 18.9721871048254087  9.4931188435478582  9.5492239830391537
 16.4425621726540356  5.1116790535049388  9.5492240303711995
 13.9129373448809730  0.7302393809942513  9.5492240347504360
  6.3240623548254140  9.4931188435478582  9.5492239830391519
  3.7944374226540534  5.1116790535049468  9.5492240303711977
  1.2648125948809823  0.7302393809942567  9.5492240347504307
 11.3833122548254071  9.4931188435478440  9.5492239830391519
  8.8536873226540518  5.1116790535049459  9.5492240303712013
  6.3240624948809820  0.7302393809942578  9.5492240347504307
 16.4425621548254064  9.4931188435478582  9.5492239830391519
 13.9129372226540493  5.1116790535049450  9.5492240303711977
 11.3833123948809813  0.7302393809942570  9.5492240347504307
  7.5888748401728812 11.6838387100937311  9.5492240181455212
  5.0592498891289104  7.3023989349639047  9.5492240131105337
  2.5296249847390881  2.9209591890845750  9.5492240541670714
 12.6481247401728787 11.6838387100937275  9.5492240181455212
 10.1184997891289079  7.3023989349638958  9.5492240131105355
  7.5888748847390941  2.9209591890845710  9.5492240541670554
 17.7073746401728798 11.6838387100937311  9.5492240181455195
 15.1777496891289054  7.3023989349639047  9.5492240131105337
 12.6481247847390890  2.9209591890845701  9.5492240541670554
 10.1184997901728853 11.6838387100937275  9.5492240181455301
  7.5888748391289162  7.3023989349638994  9.5492240131105302
  5.0592499347390909  2.9209591890845736  9.5492240541670661
 15.1777496901728721 11.6838387100937275  9.5492240181455301
 12.6481247391289138  7.3023989349638958  9.5492240131105302
 10.1184998347390920  2.9209591890845727  9.5492240541670661
 20.2369995901728856 11.6838387100937275  9.5492240181455301
 17.7073746391289077  7.3023989349638958  9.5492240131105302
 15.1777497347390877  2.9209591890845692  9.5492240541670661
  8.8536872957378030 12.4140788968208664 11.6470691394062271
  6.3240623604093678  8.0326391957373335 11.6470691466585130
  3.7944374239598937  3.6511994512314132 11.6470691702232756
 13.9129371957378059 12.4140788968208646 11.6470691394062271
 11.3833122604093653  8.0326391957373335 11.6470691466585148
  8.8536873239598926  3.6511994512314137 11.6470691702232756
 18.9721870957378052 12.4140788968208646 11.6470691394062271
 16.4425621604093770  8.0326391957373335 11.6470691466585130
 13.9129372239598936  3.6511994512314145 11.6470691702232756
 11.3833122457378106 12.4140788968208611 11.6470691394062396
  8.8536873104093630  8.0326391957373371 11.6470691466585112
  6.3240623739598956  3.6511994512314159 11.6470691702232738
 16.4425621457378170 12.4140788968208575 11.6470691394062396
 13.9129372104093711  8.0326391957373371 11.6470691466585112
 11.3833122739598984  3.6511994512314190 11.6470691702232738
 21.5018120457378217 12.4140788968208717 11.6470691394062396
 18.9721871104093722  8.0326391957373371 11.6470691466585112
 16.4425621739598924  3.6511994512314114 11.6470691702232756
 10.1184997797196008 10.2233590697271470 11.6470691135063653
  7.5888748407773594  5.8419193162581813 11.6470691560651218
  5.0592499186667004  1.4604795823086474 11.6470692205568724
 15.1777496797196036 10.2233590697271470 11.6470691135063653
 12.6481247407773694  5.8419193162581831 11.6470691560651218
 10.1184998186666988  1.4604795823086461 11.6470692205568724
 20.2369995797196012 10.2233590697271488 11.6470691135063689
 17.7073746407773598  5.8419193162581751 11.6470691560651218
 15.1777497186666857  1.4604795823086467 11.6470692205568724
  7.5888748297196038 10.2233590697271453 11.6470691135063653
  5.0592498907773624  5.8419193162581786 11.6470691560651218
  2.5296249686666985  1.4604795823086443 11.6470692205568707
 12.6481247297196031 10.2233590697271453 11.6470691135063493
 10.1184997907773635  5.8419193162581786 11.6470691560651360
  7.5888748686667000  1.4604795823086423 11.6470692205568707
 17.7073746297196202 10.2233590697271470 11.6470691135063493
 15.1777496907773735  5.8419193162581804 11.6470691560651218
 12.6481247686666922  1.4604795823086452 11.6470692205568707
  6.3240623521138835 10.9535993179373339 13.7663488257678779
  3.7944374121581879  6.5721595829678687 13.7663488328166874
  1.2648124730539017  2.1907198437913311 13.7663488503511324
 11.3833122521138908 10.9535993179373321 13.7663488257678779
  8.8536873121581809  6.5721595829678776 13.7663488328166874
  6.3240623730539021  2.1907198437913307 13.7663488503511324
 16.4425621521138865 10.9535993179373321 13.7663488257678779
 13.9129372121581909  6.5721595829678678 13.7663488328166874
 11.3833122730538960  2.1907198437913320 13.7663488503511324
  8.8536873021138867 10.9535993179373374 13.7663488257678779
  6.3240623621581857  6.5721595829678723 13.7663488328166874
  3.7944374230539015  2.1907198437913271 13.7663488503511378
 13.9129372021138877 10.9535993179373339 13.7663488257678779
 11.3833122621581850  6.5721595829678723 13.7663488328166874
  8.8536873230538990  2.1907198437913253 13.7663488503511378
 18.9721871021138853 10.9535993179373321 13.7663488257678779
 16.4425621621581897  6.5721595829678723 13.7663488328166874
 13.9129372230538984  2.1907198437913271 13.7663488503511378
  2.5296249515592732 -0.0000000344606013 13.7663488344956075
  7.5888748321455015  8.7628794530542908 13.7663488271471603
  5.0592498923443969  4.3814397122254327 13.7663488365090547
  7.5888748515592725 -0.0000000344606014 13.7663488344956075
 12.6481247321455079  8.7628794530542908 13.7663488271471586
 10.1184997923443856  4.3814397122254336 13.7663488365090547
 12.6481247515592763 -0.0000000344605996 13.7663488344956075
 17.7073746321454948  8.7628794530542891 13.7663488271471586
 15.1777496923443831  4.3814397122254327 13.7663488365090547
  0.0000000015592746 -0.0000000344605995 13.7663488344956111
  5.0592498821455001  8.7628794530542891 13.7663488271471603
  2.5296249423443915  4.3814397122254318 13.7663488365090547
  5.0592499015592702 -0.0000000344605996 13.7663488344956093
 10.1184997821455021  8.7628794530542908 13.7663488271471603
  7.5888748423443948  4.3814397122254327 13.7663488365090547
 10.1184998015592846 -0.0000000344606004 13.7663488344956111
 15.1777496821454996  8.7628794530542908 13.7663488271471603
 12.6481247423443861  4.3814397122254327 13.7663488365090547
